Minimize wls + 1000 relocations  + 10000 unrestored_time  + 10000 total_cost 
Subject to
fc_4688_Billings: x_4688_0 + x_4688_1 + x_4688_2 + x_4688_3 + x_4688_4 - 2 restored_node_4688_Billings = 0 
fc_4688_Bismarck: x_4688_5 + x_4688_4 + x_4688_6 + x_4688_7 + x_4688_8 - restored_dc_4688_Bismarck = 0 
fc_4688_Ithaca: x_4688_9 + x_4688_8 - 2 restored_node_4688_Ithaca = 0 
fc_4688_Charleston: x_4688_10 + x_4688_11 + x_4688_12 - 2 restored_node_4688_Charleston = 0 
fc_4688_Charlotte: x_4688_12 + x_4688_13 + x_4688_14 + x_4688_15 - 2 restored_node_4688_Charlotte = 0 
fc_4688_Dallas: x_4688_16 + x_4688_17 + x_4688_18 + x_4688_19 - 2 restored_node_4688_Dallas = 0 
fc_4688_Denver: x_4688_3 + x_4688_20 + x_4688_21 + x_4688_5 + x_4688_22 - 2 restored_node_4688_Denver = 0 
fc_4688_Columbus: x_4688_7 + x_4688_23 + x_4688_24 - 2 restored_node_4688_Columbus = 0 
fc_4688_El_Paso: x_4688_21 + x_4688_25 + x_4688_18 + x_4688_26 - 2 restored_node_4688_El_Paso = 0 
fc_4688_Kansas_City: x_4688_22 + x_4688_6 + x_4688_16 + x_4688_27 - 2 restored_node_4688_Kansas_City = 0 
fc_4688_Las_Vegas: x_4688_28 + x_4688_29 + x_4688_30 - 2 restored_node_4688_Las_Vegas = 0 
fc_4688_Los_Angeles: x_4688_31 + x_4688_29 + x_4688_32 - 2 restored_node_4688_Los_Angeles = 0 
fc_4688_Louisville: x_4688_27 + x_4688_33 + x_4688_14 + x_4688_34 + x_4688_24 - 2 restored_node_4688_Louisville = 0 
fc_4688_New_Orleans: x_4688_37 - restored_4688 = 0 
fc_4688_New_York: x_4688_38 + x_4688_9 + x_4688_23 - 2 restored_node_4688_New_York = 0 
fc_4688_Birmingham: x_4688_19 + x_4688_11 + x_4688_15 + x_4688_34 - restored_dc_4688_Birmingham = 0 
fc_4688_Portland: x_4688_39 + x_4688_40 + x_4688_2 - 2 restored_node_4688_Portland = 0 
fc_4688_Salt_Lake_City: x_4688_41 + x_4688_30 + x_4688_42 + x_4688_0 + x_4688_20 - restored_dc_4688_Salt_Lake_City = 0 
fc_4688_San_Antonio: x_4688_17 + x_4688_26 - 2 restored_node_4688_San_Antonio = 0 
fc_4688_San_Francisco: x_4688_40 + x_4688_31 + x_4688_28 + x_4688_41 - 2 restored_node_4688_San_Francisco = 0 
fc_4688_Seattle: x_4688_39 + x_4688_1 - 2 restored_node_4688_Seattle = 0 
fc_4688_Tallahassee: x_4688_37 + x_4688_10 - 2 restored_node_4688_Tallahassee = 0 
fc_4688_Tucson: x_4688_32 + x_4688_42 + x_4688_25 - 2 restored_node_4688_Tucson = 0 
fc_4688_Washington_DC: x_4688_13 + x_4688_38 + x_4688_33 - 2 restored_node_4688_Washington_DC = 0 
fc_4805_Billings: x_4805_0 + x_4805_1 + x_4805_2 + x_4805_3 + x_4805_4 - 2 restored_node_4805_Billings = 0 
fc_4805_Bismarck: x_4805_5 + x_4805_4 + x_4805_6 + x_4805_7 + x_4805_8 - restored_dc_4805_Bismarck = 0 
fc_4805_Ithaca: x_4805_9 + x_4805_8 - 2 restored_node_4805_Ithaca = 0 
fc_4805_Charleston: x_4805_10 + x_4805_11 + x_4805_12 - 2 restored_node_4805_Charleston = 0 
fc_4805_Charlotte: x_4805_12 + x_4805_13 + x_4805_14 + x_4805_15 - 2 restored_node_4805_Charlotte = 0 
fc_4805_Dallas: x_4805_16 + x_4805_17 + x_4805_18 + x_4805_19 - 2 restored_node_4805_Dallas = 0 
fc_4805_Denver: x_4805_3 + x_4805_20 + x_4805_21 + x_4805_5 + x_4805_22 - 2 restored_node_4805_Denver = 0 
fc_4805_Columbus: x_4805_7 + x_4805_23 + x_4805_24 - 2 restored_node_4805_Columbus = 0 
fc_4805_El_Paso: x_4805_21 + x_4805_25 + x_4805_18 + x_4805_26 - 2 restored_node_4805_El_Paso = 0 
fc_4805_Kansas_City: x_4805_22 + x_4805_6 + x_4805_16 + x_4805_27 - 2 restored_node_4805_Kansas_City = 0 
fc_4805_Las_Vegas: x_4805_28 + x_4805_29 + x_4805_30 - 2 restored_node_4805_Las_Vegas = 0 
fc_4805_Los_Angeles: x_4805_31 + x_4805_29 + x_4805_32 - 2 restored_node_4805_Los_Angeles = 0 
fc_4805_Louisville: x_4805_27 + x_4805_33 + x_4805_14 + x_4805_34 + x_4805_24 - 2 restored_node_4805_Louisville = 0 
fc_4805_New_Orleans: x_4805_37 - 2 restored_node_4805_New_Orleans = 0 
fc_4805_New_York: x_4805_38 + x_4805_9 + x_4805_23 - 2 restored_node_4805_New_York = 0 
fc_4805_Birmingham: x_4805_19 + x_4805_11 + x_4805_15 + x_4805_34 - restored_dc_4805_Birmingham = 0 
fc_4805_Portland: x_4805_39 + x_4805_40 + x_4805_2 - 2 restored_node_4805_Portland = 0 
fc_4805_Salt_Lake_City: x_4805_41 + x_4805_30 + x_4805_42 + x_4805_0 + x_4805_20 - restored_dc_4805_Salt_Lake_City = 0 
fc_4805_San_Antonio: x_4805_17 + x_4805_26 - restored_4805 = 0 
fc_4805_San_Francisco: x_4805_40 + x_4805_31 + x_4805_28 + x_4805_41 - 2 restored_node_4805_San_Francisco = 0 
fc_4805_Seattle: x_4805_39 + x_4805_1 - 2 restored_node_4805_Seattle = 0 
fc_4805_Tallahassee: x_4805_37 + x_4805_10 - 2 restored_node_4805_Tallahassee = 0 
fc_4805_Tucson: x_4805_32 + x_4805_42 + x_4805_25 - 2 restored_node_4805_Tucson = 0 
fc_4805_Washington_DC: x_4805_13 + x_4805_38 + x_4805_33 - 2 restored_node_4805_Washington_DC = 0 
fc_4824_Billings: x_4824_0 + x_4824_1 + x_4824_2 + x_4824_3 + x_4824_4 - 2 restored_node_4824_Billings = 0 
fc_4824_Bismarck: x_4824_5 + x_4824_4 + x_4824_6 + x_4824_7 + x_4824_8 - restored_dc_4824_Bismarck = 0 
fc_4824_Ithaca: x_4824_9 + x_4824_8 - 2 restored_node_4824_Ithaca = 0 
fc_4824_Charleston: x_4824_10 + x_4824_11 + x_4824_12 - 2 restored_node_4824_Charleston = 0 
fc_4824_Charlotte: x_4824_12 + x_4824_13 + x_4824_14 + x_4824_15 - 2 restored_node_4824_Charlotte = 0 
fc_4824_Dallas: x_4824_16 + x_4824_17 + x_4824_18 + x_4824_19 - 2 restored_node_4824_Dallas = 0 
fc_4824_Denver: x_4824_3 + x_4824_20 + x_4824_21 + x_4824_5 + x_4824_22 - 2 restored_node_4824_Denver = 0 
fc_4824_Columbus: x_4824_7 + x_4824_23 + x_4824_24 - 2 restored_node_4824_Columbus = 0 
fc_4824_El_Paso: x_4824_21 + x_4824_25 + x_4824_18 + x_4824_26 - 2 restored_node_4824_El_Paso = 0 
fc_4824_Kansas_City: x_4824_22 + x_4824_6 + x_4824_16 + x_4824_27 - 2 restored_node_4824_Kansas_City = 0 
fc_4824_Las_Vegas: x_4824_28 + x_4824_29 + x_4824_30 - 2 restored_node_4824_Las_Vegas = 0 
fc_4824_Los_Angeles: x_4824_31 + x_4824_29 + x_4824_32 - 2 restored_node_4824_Los_Angeles = 0 
fc_4824_Louisville: x_4824_27 + x_4824_33 + x_4824_14 + x_4824_34 + x_4824_24 - 2 restored_node_4824_Louisville = 0 
fc_4824_New_Orleans: x_4824_37 - 2 restored_node_4824_New_Orleans = 0 
fc_4824_New_York: x_4824_38 + x_4824_9 + x_4824_23 - 2 restored_node_4824_New_York = 0 
fc_4824_Birmingham: x_4824_19 + x_4824_11 + x_4824_15 + x_4824_34 - restored_dc_4824_Birmingham = 0 
fc_4824_Portland: x_4824_39 + x_4824_40 + x_4824_2 - 2 restored_node_4824_Portland = 0 
fc_4824_Salt_Lake_City: x_4824_41 + x_4824_30 + x_4824_42 + x_4824_0 + x_4824_20 - restored_dc_4824_Salt_Lake_City = 0 
fc_4824_San_Antonio: x_4824_17 + x_4824_26 - restored_4824 = 0 
fc_4824_San_Francisco: x_4824_40 + x_4824_31 + x_4824_28 + x_4824_41 - 2 restored_node_4824_San_Francisco = 0 
fc_4824_Seattle: x_4824_39 + x_4824_1 - 2 restored_node_4824_Seattle = 0 
fc_4824_Tallahassee: x_4824_37 + x_4824_10 - 2 restored_node_4824_Tallahassee = 0 
fc_4824_Tucson: x_4824_32 + x_4824_42 + x_4824_25 - 2 restored_node_4824_Tucson = 0 
fc_4824_Washington_DC: x_4824_13 + x_4824_38 + x_4824_33 - 2 restored_node_4824_Washington_DC = 0 
fc_4527_Billings: x_4527_0 + x_4527_1 + x_4527_2 + x_4527_3 + x_4527_4 - 2 restored_node_4527_Billings = 0 
fc_4527_Bismarck: x_4527_5 + x_4527_4 + x_4527_6 + x_4527_7 + x_4527_8 - restored_dc_4527_Bismarck = 0 
fc_4527_Ithaca: x_4527_9 + x_4527_8 - 2 restored_node_4527_Ithaca = 0 
fc_4527_Charleston: x_4527_10 + x_4527_11 + x_4527_12 - 2 restored_node_4527_Charleston = 0 
fc_4527_Charlotte: x_4527_12 + x_4527_13 + x_4527_14 + x_4527_15 - 2 restored_node_4527_Charlotte = 0 
fc_4527_Dallas: x_4527_16 + x_4527_17 + x_4527_18 + x_4527_19 - 2 restored_node_4527_Dallas = 0 
fc_4527_Denver: x_4527_3 + x_4527_20 + x_4527_21 + x_4527_5 + x_4527_22 - 2 restored_node_4527_Denver = 0 
fc_4527_Columbus: x_4527_7 + x_4527_23 + x_4527_24 - 2 restored_node_4527_Columbus = 0 
fc_4527_El_Paso: x_4527_21 + x_4527_25 + x_4527_18 + x_4527_26 - 2 restored_node_4527_El_Paso = 0 
fc_4527_Kansas_City: x_4527_22 + x_4527_6 + x_4527_16 + x_4527_27 - 2 restored_node_4527_Kansas_City = 0 
fc_4527_Las_Vegas: x_4527_28 + x_4527_29 + x_4527_30 - 2 restored_node_4527_Las_Vegas = 0 
fc_4527_Los_Angeles: x_4527_31 + x_4527_29 + x_4527_32 - 2 restored_node_4527_Los_Angeles = 0 
fc_4527_Louisville: x_4527_27 + x_4527_33 + x_4527_14 + x_4527_34 + x_4527_24 - 2 restored_node_4527_Louisville = 0 
fc_4527_New_Orleans: x_4527_37 - 2 restored_node_4527_New_Orleans = 0 
fc_4527_New_York: x_4527_38 + x_4527_9 + x_4527_23 - 2 restored_node_4527_New_York = 0 
fc_4527_Birmingham: x_4527_19 + x_4527_11 + x_4527_15 + x_4527_34 - restored_dc_4527_Birmingham = 0 
fc_4527_Portland: x_4527_39 + x_4527_40 + x_4527_2 - 2 restored_node_4527_Portland = 0 
fc_4527_Salt_Lake_City: x_4527_41 + x_4527_30 + x_4527_42 + x_4527_0 + x_4527_20 - restored_dc_4527_Salt_Lake_City = 0 
fc_4527_San_Antonio: x_4527_17 + x_4527_26 - restored_4527 = 0 
fc_4527_San_Francisco: x_4527_40 + x_4527_31 + x_4527_28 + x_4527_41 - 2 restored_node_4527_San_Francisco = 0 
fc_4527_Seattle: x_4527_39 + x_4527_1 - 2 restored_node_4527_Seattle = 0 
fc_4527_Tallahassee: x_4527_37 + x_4527_10 - 2 restored_node_4527_Tallahassee = 0 
fc_4527_Tucson: x_4527_32 + x_4527_42 + x_4527_25 - 2 restored_node_4527_Tucson = 0 
fc_4527_Washington_DC: x_4527_13 + x_4527_38 + x_4527_33 - 2 restored_node_4527_Washington_DC = 0 
fc_4123_Billings: x_4123_0 + x_4123_1 + x_4123_2 + x_4123_3 + x_4123_4 - 2 restored_node_4123_Billings = 0 
fc_4123_Bismarck: x_4123_5 + x_4123_4 + x_4123_6 + x_4123_7 + x_4123_8 - restored_dc_4123_Bismarck = 0 
fc_4123_Ithaca: x_4123_9 + x_4123_8 - 2 restored_node_4123_Ithaca = 0 
fc_4123_Charleston: x_4123_10 + x_4123_11 + x_4123_12 - 2 restored_node_4123_Charleston = 0 
fc_4123_Charlotte: x_4123_12 + x_4123_13 + x_4123_14 + x_4123_15 - 2 restored_node_4123_Charlotte = 0 
fc_4123_Dallas: x_4123_16 + x_4123_17 + x_4123_18 + x_4123_19 - 2 restored_node_4123_Dallas = 0 
fc_4123_Denver: x_4123_3 + x_4123_20 + x_4123_21 + x_4123_5 + x_4123_22 - 2 restored_node_4123_Denver = 0 
fc_4123_Columbus: x_4123_7 + x_4123_23 + x_4123_24 - 2 restored_node_4123_Columbus = 0 
fc_4123_El_Paso: x_4123_21 + x_4123_25 + x_4123_18 + x_4123_26 - 2 restored_node_4123_El_Paso = 0 
fc_4123_Kansas_City: x_4123_22 + x_4123_6 + x_4123_16 + x_4123_27 - 2 restored_node_4123_Kansas_City = 0 
fc_4123_Las_Vegas: x_4123_28 + x_4123_29 + x_4123_30 - 2 restored_node_4123_Las_Vegas = 0 
fc_4123_Los_Angeles: x_4123_31 + x_4123_29 + x_4123_32 - 2 restored_node_4123_Los_Angeles = 0 
fc_4123_Louisville: x_4123_27 + x_4123_33 + x_4123_14 + x_4123_34 + x_4123_24 - 2 restored_node_4123_Louisville = 0 
fc_4123_New_Orleans: x_4123_37 - 2 restored_node_4123_New_Orleans = 0 
fc_4123_New_York: x_4123_38 + x_4123_9 + x_4123_23 - 2 restored_node_4123_New_York = 0 
fc_4123_Birmingham: x_4123_19 + x_4123_11 + x_4123_15 + x_4123_34 - restored_dc_4123_Birmingham = 0 
fc_4123_Portland: x_4123_39 + x_4123_40 + x_4123_2 - 2 restored_node_4123_Portland = 0 
fc_4123_Salt_Lake_City: x_4123_41 + x_4123_30 + x_4123_42 + x_4123_0 + x_4123_20 - restored_dc_4123_Salt_Lake_City = 0 
fc_4123_San_Antonio: x_4123_17 + x_4123_26 - restored_4123 = 0 
fc_4123_San_Francisco: x_4123_40 + x_4123_31 + x_4123_28 + x_4123_41 - 2 restored_node_4123_San_Francisco = 0 
fc_4123_Seattle: x_4123_39 + x_4123_1 - 2 restored_node_4123_Seattle = 0 
fc_4123_Tallahassee: x_4123_37 + x_4123_10 - 2 restored_node_4123_Tallahassee = 0 
fc_4123_Tucson: x_4123_32 + x_4123_42 + x_4123_25 - 2 restored_node_4123_Tucson = 0 
fc_4123_Washington_DC: x_4123_13 + x_4123_38 + x_4123_33 - 2 restored_node_4123_Washington_DC = 0 
fc_3470_Billings: x_3470_0 + x_3470_1 + x_3470_2 + x_3470_3 + x_3470_4 - 2 restored_node_3470_Billings = 0 
fc_3470_Bismarck: x_3470_5 + x_3470_4 + x_3470_6 + x_3470_7 + x_3470_8 - restored_dc_3470_Bismarck = 0 
fc_3470_Ithaca: x_3470_9 + x_3470_8 - 2 restored_node_3470_Ithaca = 0 
fc_3470_Charleston: x_3470_10 + x_3470_11 + x_3470_12 - 2 restored_node_3470_Charleston = 0 
fc_3470_Charlotte: x_3470_12 + x_3470_13 + x_3470_14 + x_3470_15 - 2 restored_node_3470_Charlotte = 0 
fc_3470_Dallas: x_3470_16 + x_3470_17 + x_3470_18 + x_3470_19 - 2 restored_node_3470_Dallas = 0 
fc_3470_Denver: x_3470_3 + x_3470_20 + x_3470_21 + x_3470_5 + x_3470_22 - 2 restored_node_3470_Denver = 0 
fc_3470_Columbus: x_3470_7 + x_3470_23 + x_3470_24 - 2 restored_node_3470_Columbus = 0 
fc_3470_El_Paso: x_3470_21 + x_3470_25 + x_3470_18 + x_3470_26 - 2 restored_node_3470_El_Paso = 0 
fc_3470_Kansas_City: x_3470_22 + x_3470_6 + x_3470_16 + x_3470_27 - 2 restored_node_3470_Kansas_City = 0 
fc_3470_Las_Vegas: x_3470_28 + x_3470_29 + x_3470_30 - 2 restored_node_3470_Las_Vegas = 0 
fc_3470_Los_Angeles: x_3470_31 + x_3470_29 + x_3470_32 - 2 restored_node_3470_Los_Angeles = 0 
fc_3470_Louisville: x_3470_27 + x_3470_33 + x_3470_14 + x_3470_34 + x_3470_24 - 2 restored_node_3470_Louisville = 0 
fc_3470_New_Orleans: x_3470_37 - 2 restored_node_3470_New_Orleans = 0 
fc_3470_New_York: x_3470_38 + x_3470_9 + x_3470_23 - 2 restored_node_3470_New_York = 0 
fc_3470_Birmingham: x_3470_19 + x_3470_11 + x_3470_15 + x_3470_34 - restored_dc_3470_Birmingham = 0 
fc_3470_Portland: x_3470_39 + x_3470_40 + x_3470_2 - 2 restored_node_3470_Portland = 0 
fc_3470_Salt_Lake_City: x_3470_41 + x_3470_30 + x_3470_42 + x_3470_0 + x_3470_20 - restored_dc_3470_Salt_Lake_City = 0 
fc_3470_San_Antonio: x_3470_17 + x_3470_26 - restored_3470 = 0 
fc_3470_San_Francisco: x_3470_40 + x_3470_31 + x_3470_28 + x_3470_41 - 2 restored_node_3470_San_Francisco = 0 
fc_3470_Seattle: x_3470_39 + x_3470_1 - 2 restored_node_3470_Seattle = 0 
fc_3470_Tallahassee: x_3470_37 + x_3470_10 - 2 restored_node_3470_Tallahassee = 0 
fc_3470_Tucson: x_3470_32 + x_3470_42 + x_3470_25 - 2 restored_node_3470_Tucson = 0 
fc_3470_Washington_DC: x_3470_13 + x_3470_38 + x_3470_33 - 2 restored_node_3470_Washington_DC = 0 
fc_4000_Billings: x_4000_0 + x_4000_1 + x_4000_2 + x_4000_3 + x_4000_4 - 2 restored_node_4000_Billings = 0 
fc_4000_Bismarck: x_4000_5 + x_4000_4 + x_4000_6 + x_4000_7 + x_4000_8 - restored_dc_4000_Bismarck = 0 
fc_4000_Ithaca: x_4000_9 + x_4000_8 - 2 restored_node_4000_Ithaca = 0 
fc_4000_Charleston: x_4000_10 + x_4000_11 + x_4000_12 - 2 restored_node_4000_Charleston = 0 
fc_4000_Charlotte: x_4000_12 + x_4000_13 + x_4000_14 + x_4000_15 - 2 restored_node_4000_Charlotte = 0 
fc_4000_Dallas: x_4000_16 + x_4000_17 + x_4000_18 + x_4000_19 - 2 restored_node_4000_Dallas = 0 
fc_4000_Denver: x_4000_3 + x_4000_20 + x_4000_21 + x_4000_5 + x_4000_22 - 2 restored_node_4000_Denver = 0 
fc_4000_Columbus: x_4000_7 + x_4000_23 + x_4000_24 - 2 restored_node_4000_Columbus = 0 
fc_4000_El_Paso: x_4000_21 + x_4000_25 + x_4000_18 + x_4000_26 - 2 restored_node_4000_El_Paso = 0 
fc_4000_Kansas_City: x_4000_22 + x_4000_6 + x_4000_16 + x_4000_27 - 2 restored_node_4000_Kansas_City = 0 
fc_4000_Las_Vegas: x_4000_28 + x_4000_29 + x_4000_30 - 2 restored_node_4000_Las_Vegas = 0 
fc_4000_Los_Angeles: x_4000_31 + x_4000_29 + x_4000_32 - 2 restored_node_4000_Los_Angeles = 0 
fc_4000_Louisville: x_4000_27 + x_4000_33 + x_4000_14 + x_4000_34 + x_4000_24 - 2 restored_node_4000_Louisville = 0 
fc_4000_New_Orleans: x_4000_37 - 2 restored_node_4000_New_Orleans = 0 
fc_4000_New_York: x_4000_38 + x_4000_9 + x_4000_23 - 2 restored_node_4000_New_York = 0 
fc_4000_Birmingham: x_4000_19 + x_4000_11 + x_4000_15 + x_4000_34 - restored_dc_4000_Birmingham = 0 
fc_4000_Portland: x_4000_39 + x_4000_40 + x_4000_2 - 2 restored_node_4000_Portland = 0 
fc_4000_Salt_Lake_City: x_4000_41 + x_4000_30 + x_4000_42 + x_4000_0 + x_4000_20 - restored_dc_4000_Salt_Lake_City = 0 
fc_4000_San_Antonio: x_4000_17 + x_4000_26 - 2 restored_node_4000_San_Antonio = 0 
fc_4000_San_Francisco: x_4000_40 + x_4000_31 + x_4000_28 + x_4000_41 - 2 restored_node_4000_San_Francisco = 0 
fc_4000_Seattle: x_4000_39 + x_4000_1 - 2 restored_node_4000_Seattle = 0 
fc_4000_Tallahassee: x_4000_37 + x_4000_10 - restored_4000 = 0 
fc_4000_Tucson: x_4000_32 + x_4000_42 + x_4000_25 - 2 restored_node_4000_Tucson = 0 
fc_4000_Washington_DC: x_4000_13 + x_4000_38 + x_4000_33 - 2 restored_node_4000_Washington_DC = 0 
fc_4870_Billings: x_4870_0 + x_4870_1 + x_4870_2 + x_4870_3 + x_4870_4 - 2 restored_node_4870_Billings = 0 
fc_4870_Bismarck: x_4870_5 + x_4870_4 + x_4870_6 + x_4870_7 + x_4870_8 - restored_dc_4870_Bismarck = 0 
fc_4870_Ithaca: x_4870_9 + x_4870_8 - 2 restored_node_4870_Ithaca = 0 
fc_4870_Charleston: x_4870_10 + x_4870_11 + x_4870_12 - 2 restored_node_4870_Charleston = 0 
fc_4870_Charlotte: x_4870_12 + x_4870_13 + x_4870_14 + x_4870_15 - 2 restored_node_4870_Charlotte = 0 
fc_4870_Dallas: x_4870_16 + x_4870_17 + x_4870_18 + x_4870_19 - 2 restored_node_4870_Dallas = 0 
fc_4870_Denver: x_4870_3 + x_4870_20 + x_4870_21 + x_4870_5 + x_4870_22 - 2 restored_node_4870_Denver = 0 
fc_4870_Columbus: x_4870_7 + x_4870_23 + x_4870_24 - 2 restored_node_4870_Columbus = 0 
fc_4870_El_Paso: x_4870_21 + x_4870_25 + x_4870_18 + x_4870_26 - 2 restored_node_4870_El_Paso = 0 
fc_4870_Kansas_City: x_4870_22 + x_4870_6 + x_4870_16 + x_4870_27 - 2 restored_node_4870_Kansas_City = 0 
fc_4870_Las_Vegas: x_4870_28 + x_4870_29 + x_4870_30 - 2 restored_node_4870_Las_Vegas = 0 
fc_4870_Los_Angeles: x_4870_31 + x_4870_29 + x_4870_32 - 2 restored_node_4870_Los_Angeles = 0 
fc_4870_Louisville: x_4870_27 + x_4870_33 + x_4870_14 + x_4870_34 + x_4870_24 - 2 restored_node_4870_Louisville = 0 
fc_4870_New_Orleans: x_4870_37 - 2 restored_node_4870_New_Orleans = 0 
fc_4870_New_York: x_4870_38 + x_4870_9 + x_4870_23 - 2 restored_node_4870_New_York = 0 
fc_4870_Birmingham: x_4870_19 + x_4870_11 + x_4870_15 + x_4870_34 - restored_dc_4870_Birmingham = 0 
fc_4870_Portland: x_4870_39 + x_4870_40 + x_4870_2 - 2 restored_node_4870_Portland = 0 
fc_4870_Salt_Lake_City: x_4870_41 + x_4870_30 + x_4870_42 + x_4870_0 + x_4870_20 - restored_dc_4870_Salt_Lake_City = 0 
fc_4870_San_Antonio: x_4870_17 + x_4870_26 - restored_4870 = 0 
fc_4870_San_Francisco: x_4870_40 + x_4870_31 + x_4870_28 + x_4870_41 - 2 restored_node_4870_San_Francisco = 0 
fc_4870_Seattle: x_4870_39 + x_4870_1 - 2 restored_node_4870_Seattle = 0 
fc_4870_Tallahassee: x_4870_37 + x_4870_10 - 2 restored_node_4870_Tallahassee = 0 
fc_4870_Tucson: x_4870_32 + x_4870_42 + x_4870_25 - 2 restored_node_4870_Tucson = 0 
fc_4870_Washington_DC: x_4870_13 + x_4870_38 + x_4870_33 - 2 restored_node_4870_Washington_DC = 0 
fc_4867_Billings: x_4867_0 + x_4867_1 + x_4867_2 + x_4867_3 + x_4867_4 - 2 restored_node_4867_Billings = 0 
fc_4867_Bismarck: x_4867_5 + x_4867_4 + x_4867_6 + x_4867_7 + x_4867_8 - restored_dc_4867_Bismarck = 0 
fc_4867_Ithaca: x_4867_9 + x_4867_8 - 2 restored_node_4867_Ithaca = 0 
fc_4867_Charleston: x_4867_10 + x_4867_11 + x_4867_12 - 2 restored_node_4867_Charleston = 0 
fc_4867_Charlotte: x_4867_12 + x_4867_13 + x_4867_14 + x_4867_15 - 2 restored_node_4867_Charlotte = 0 
fc_4867_Dallas: x_4867_16 + x_4867_17 + x_4867_18 + x_4867_19 - 2 restored_node_4867_Dallas = 0 
fc_4867_Denver: x_4867_3 + x_4867_20 + x_4867_21 + x_4867_5 + x_4867_22 - 2 restored_node_4867_Denver = 0 
fc_4867_Columbus: x_4867_7 + x_4867_23 + x_4867_24 - 2 restored_node_4867_Columbus = 0 
fc_4867_El_Paso: x_4867_21 + x_4867_25 + x_4867_18 + x_4867_26 - 2 restored_node_4867_El_Paso = 0 
fc_4867_Kansas_City: x_4867_22 + x_4867_6 + x_4867_16 + x_4867_27 - 2 restored_node_4867_Kansas_City = 0 
fc_4867_Las_Vegas: x_4867_28 + x_4867_29 + x_4867_30 - 2 restored_node_4867_Las_Vegas = 0 
fc_4867_Los_Angeles: x_4867_31 + x_4867_29 + x_4867_32 - 2 restored_node_4867_Los_Angeles = 0 
fc_4867_Louisville: x_4867_27 + x_4867_33 + x_4867_14 + x_4867_34 + x_4867_24 - 2 restored_node_4867_Louisville = 0 
fc_4867_New_Orleans: x_4867_37 - restored_4867 = 0 
fc_4867_New_York: x_4867_38 + x_4867_9 + x_4867_23 - 2 restored_node_4867_New_York = 0 
fc_4867_Birmingham: x_4867_19 + x_4867_11 + x_4867_15 + x_4867_34 - restored_dc_4867_Birmingham = 0 
fc_4867_Portland: x_4867_39 + x_4867_40 + x_4867_2 - 2 restored_node_4867_Portland = 0 
fc_4867_Salt_Lake_City: x_4867_41 + x_4867_30 + x_4867_42 + x_4867_0 + x_4867_20 - restored_dc_4867_Salt_Lake_City = 0 
fc_4867_San_Antonio: x_4867_17 + x_4867_26 - 2 restored_node_4867_San_Antonio = 0 
fc_4867_San_Francisco: x_4867_40 + x_4867_31 + x_4867_28 + x_4867_41 - 2 restored_node_4867_San_Francisco = 0 
fc_4867_Seattle: x_4867_39 + x_4867_1 - 2 restored_node_4867_Seattle = 0 
fc_4867_Tallahassee: x_4867_37 + x_4867_10 - 2 restored_node_4867_Tallahassee = 0 
fc_4867_Tucson: x_4867_32 + x_4867_42 + x_4867_25 - 2 restored_node_4867_Tucson = 0 
fc_4867_Washington_DC: x_4867_13 + x_4867_38 + x_4867_33 - 2 restored_node_4867_Washington_DC = 0 
fc_4256_Billings: x_4256_0 + x_4256_1 + x_4256_2 + x_4256_3 + x_4256_4 - 2 restored_node_4256_Billings = 0 
fc_4256_Bismarck: x_4256_5 + x_4256_4 + x_4256_6 + x_4256_7 + x_4256_8 - restored_dc_4256_Bismarck = 0 
fc_4256_Ithaca: x_4256_9 + x_4256_8 - 2 restored_node_4256_Ithaca = 0 
fc_4256_Charleston: x_4256_10 + x_4256_11 + x_4256_12 - 2 restored_node_4256_Charleston = 0 
fc_4256_Charlotte: x_4256_12 + x_4256_13 + x_4256_14 + x_4256_15 - 2 restored_node_4256_Charlotte = 0 
fc_4256_Dallas: x_4256_16 + x_4256_17 + x_4256_18 + x_4256_19 - 2 restored_node_4256_Dallas = 0 
fc_4256_Denver: x_4256_3 + x_4256_20 + x_4256_21 + x_4256_5 + x_4256_22 - 2 restored_node_4256_Denver = 0 
fc_4256_Columbus: x_4256_7 + x_4256_23 + x_4256_24 - 2 restored_node_4256_Columbus = 0 
fc_4256_El_Paso: x_4256_21 + x_4256_25 + x_4256_18 + x_4256_26 - 2 restored_node_4256_El_Paso = 0 
fc_4256_Kansas_City: x_4256_22 + x_4256_6 + x_4256_16 + x_4256_27 - 2 restored_node_4256_Kansas_City = 0 
fc_4256_Las_Vegas: x_4256_28 + x_4256_29 + x_4256_30 - 2 restored_node_4256_Las_Vegas = 0 
fc_4256_Los_Angeles: x_4256_31 + x_4256_29 + x_4256_32 - 2 restored_node_4256_Los_Angeles = 0 
fc_4256_Louisville: x_4256_27 + x_4256_33 + x_4256_14 + x_4256_34 + x_4256_24 - 2 restored_node_4256_Louisville = 0 
fc_4256_New_Orleans: x_4256_37 - 2 restored_node_4256_New_Orleans = 0 
fc_4256_New_York: x_4256_38 + x_4256_9 + x_4256_23 - 2 restored_node_4256_New_York = 0 
fc_4256_Birmingham: x_4256_19 + x_4256_11 + x_4256_15 + x_4256_34 - restored_dc_4256_Birmingham = 0 
fc_4256_Portland: x_4256_39 + x_4256_40 + x_4256_2 - 2 restored_node_4256_Portland = 0 
fc_4256_Salt_Lake_City: x_4256_41 + x_4256_30 + x_4256_42 + x_4256_0 + x_4256_20 - restored_dc_4256_Salt_Lake_City = 0 
fc_4256_San_Antonio: x_4256_17 + x_4256_26 - 2 restored_node_4256_San_Antonio = 0 
fc_4256_San_Francisco: x_4256_40 + x_4256_31 + x_4256_28 + x_4256_41 - 2 restored_node_4256_San_Francisco = 0 
fc_4256_Seattle: x_4256_39 + x_4256_1 - 2 restored_node_4256_Seattle = 0 
fc_4256_Tallahassee: x_4256_37 + x_4256_10 - restored_4256 = 0 
fc_4256_Tucson: x_4256_32 + x_4256_42 + x_4256_25 - 2 restored_node_4256_Tucson = 0 
fc_4256_Washington_DC: x_4256_13 + x_4256_38 + x_4256_33 - 2 restored_node_4256_Washington_DC = 0 
fc_4789_Billings: x_4789_0 + x_4789_1 + x_4789_2 + x_4789_3 + x_4789_4 - 2 restored_node_4789_Billings = 0 
fc_4789_Bismarck: x_4789_5 + x_4789_4 + x_4789_6 + x_4789_7 + x_4789_8 - restored_dc_4789_Bismarck = 0 
fc_4789_Ithaca: x_4789_9 + x_4789_8 - 2 restored_node_4789_Ithaca = 0 
fc_4789_Charleston: x_4789_10 + x_4789_11 + x_4789_12 - 2 restored_node_4789_Charleston = 0 
fc_4789_Charlotte: x_4789_12 + x_4789_13 + x_4789_14 + x_4789_15 - 2 restored_node_4789_Charlotte = 0 
fc_4789_Dallas: x_4789_16 + x_4789_17 + x_4789_18 + x_4789_19 - 2 restored_node_4789_Dallas = 0 
fc_4789_Denver: x_4789_3 + x_4789_20 + x_4789_21 + x_4789_5 + x_4789_22 - 2 restored_node_4789_Denver = 0 
fc_4789_Columbus: x_4789_7 + x_4789_23 + x_4789_24 - 2 restored_node_4789_Columbus = 0 
fc_4789_El_Paso: x_4789_21 + x_4789_25 + x_4789_18 + x_4789_26 - 2 restored_node_4789_El_Paso = 0 
fc_4789_Kansas_City: x_4789_22 + x_4789_6 + x_4789_16 + x_4789_27 - 2 restored_node_4789_Kansas_City = 0 
fc_4789_Las_Vegas: x_4789_28 + x_4789_29 + x_4789_30 - 2 restored_node_4789_Las_Vegas = 0 
fc_4789_Los_Angeles: x_4789_31 + x_4789_29 + x_4789_32 - 2 restored_node_4789_Los_Angeles = 0 
fc_4789_Louisville: x_4789_27 + x_4789_33 + x_4789_14 + x_4789_34 + x_4789_24 - 2 restored_node_4789_Louisville = 0 
fc_4789_New_Orleans: x_4789_37 - 2 restored_node_4789_New_Orleans = 0 
fc_4789_New_York: x_4789_38 + x_4789_9 + x_4789_23 - 2 restored_node_4789_New_York = 0 
fc_4789_Birmingham: x_4789_19 + x_4789_11 + x_4789_15 + x_4789_34 - restored_dc_4789_Birmingham = 0 
fc_4789_Portland: x_4789_39 + x_4789_40 + x_4789_2 - 2 restored_node_4789_Portland = 0 
fc_4789_Salt_Lake_City: x_4789_41 + x_4789_30 + x_4789_42 + x_4789_0 + x_4789_20 - restored_dc_4789_Salt_Lake_City = 0 
fc_4789_San_Antonio: x_4789_17 + x_4789_26 - restored_4789 = 0 
fc_4789_San_Francisco: x_4789_40 + x_4789_31 + x_4789_28 + x_4789_41 - 2 restored_node_4789_San_Francisco = 0 
fc_4789_Seattle: x_4789_39 + x_4789_1 - 2 restored_node_4789_Seattle = 0 
fc_4789_Tallahassee: x_4789_37 + x_4789_10 - 2 restored_node_4789_Tallahassee = 0 
fc_4789_Tucson: x_4789_32 + x_4789_42 + x_4789_25 - 2 restored_node_4789_Tucson = 0 
fc_4789_Washington_DC: x_4789_13 + x_4789_38 + x_4789_33 - 2 restored_node_4789_Washington_DC = 0 
fc_4026_Billings: x_4026_0 + x_4026_1 + x_4026_2 + x_4026_3 + x_4026_4 - 2 restored_node_4026_Billings = 0 
fc_4026_Bismarck: x_4026_5 + x_4026_4 + x_4026_6 + x_4026_7 + x_4026_8 - restored_dc_4026_Bismarck = 0 
fc_4026_Ithaca: x_4026_9 + x_4026_8 - 2 restored_node_4026_Ithaca = 0 
fc_4026_Charleston: x_4026_10 + x_4026_11 + x_4026_12 - 2 restored_node_4026_Charleston = 0 
fc_4026_Charlotte: x_4026_12 + x_4026_13 + x_4026_14 + x_4026_15 - 2 restored_node_4026_Charlotte = 0 
fc_4026_Dallas: x_4026_16 + x_4026_17 + x_4026_18 + x_4026_19 - 2 restored_node_4026_Dallas = 0 
fc_4026_Denver: x_4026_3 + x_4026_20 + x_4026_21 + x_4026_5 + x_4026_22 - 2 restored_node_4026_Denver = 0 
fc_4026_Columbus: x_4026_7 + x_4026_23 + x_4026_24 - 2 restored_node_4026_Columbus = 0 
fc_4026_El_Paso: x_4026_21 + x_4026_25 + x_4026_18 + x_4026_26 - 2 restored_node_4026_El_Paso = 0 
fc_4026_Kansas_City: x_4026_22 + x_4026_6 + x_4026_16 + x_4026_27 - 2 restored_node_4026_Kansas_City = 0 
fc_4026_Las_Vegas: x_4026_28 + x_4026_29 + x_4026_30 - 2 restored_node_4026_Las_Vegas = 0 
fc_4026_Los_Angeles: x_4026_31 + x_4026_29 + x_4026_32 - 2 restored_node_4026_Los_Angeles = 0 
fc_4026_Louisville: x_4026_27 + x_4026_33 + x_4026_14 + x_4026_34 + x_4026_24 - 2 restored_node_4026_Louisville = 0 
fc_4026_New_Orleans: x_4026_37 - restored_4026 = 0 
fc_4026_New_York: x_4026_38 + x_4026_9 + x_4026_23 - 2 restored_node_4026_New_York = 0 
fc_4026_Birmingham: x_4026_19 + x_4026_11 + x_4026_15 + x_4026_34 - restored_dc_4026_Birmingham = 0 
fc_4026_Portland: x_4026_39 + x_4026_40 + x_4026_2 - 2 restored_node_4026_Portland = 0 
fc_4026_Salt_Lake_City: x_4026_41 + x_4026_30 + x_4026_42 + x_4026_0 + x_4026_20 - restored_dc_4026_Salt_Lake_City = 0 
fc_4026_San_Antonio: x_4026_17 + x_4026_26 - 2 restored_node_4026_San_Antonio = 0 
fc_4026_San_Francisco: x_4026_40 + x_4026_31 + x_4026_28 + x_4026_41 - 2 restored_node_4026_San_Francisco = 0 
fc_4026_Seattle: x_4026_39 + x_4026_1 - 2 restored_node_4026_Seattle = 0 
fc_4026_Tallahassee: x_4026_37 + x_4026_10 - 2 restored_node_4026_Tallahassee = 0 
fc_4026_Tucson: x_4026_32 + x_4026_42 + x_4026_25 - 2 restored_node_4026_Tucson = 0 
fc_4026_Washington_DC: x_4026_13 + x_4026_38 + x_4026_33 - 2 restored_node_4026_Washington_DC = 0 
fc_4639_Billings: x_4639_0 + x_4639_1 + x_4639_2 + x_4639_3 + x_4639_4 - 2 restored_node_4639_Billings = 0 
fc_4639_Bismarck: x_4639_5 + x_4639_4 + x_4639_6 + x_4639_7 + x_4639_8 - restored_dc_4639_Bismarck = 0 
fc_4639_Ithaca: x_4639_9 + x_4639_8 - 2 restored_node_4639_Ithaca = 0 
fc_4639_Charleston: x_4639_10 + x_4639_11 + x_4639_12 - 2 restored_node_4639_Charleston = 0 
fc_4639_Charlotte: x_4639_12 + x_4639_13 + x_4639_14 + x_4639_15 - 2 restored_node_4639_Charlotte = 0 
fc_4639_Dallas: x_4639_16 + x_4639_17 + x_4639_18 + x_4639_19 - 2 restored_node_4639_Dallas = 0 
fc_4639_Denver: x_4639_3 + x_4639_20 + x_4639_21 + x_4639_5 + x_4639_22 - 2 restored_node_4639_Denver = 0 
fc_4639_Columbus: x_4639_7 + x_4639_23 + x_4639_24 - 2 restored_node_4639_Columbus = 0 
fc_4639_El_Paso: x_4639_21 + x_4639_25 + x_4639_18 + x_4639_26 - 2 restored_node_4639_El_Paso = 0 
fc_4639_Kansas_City: x_4639_22 + x_4639_6 + x_4639_16 + x_4639_27 - 2 restored_node_4639_Kansas_City = 0 
fc_4639_Las_Vegas: x_4639_28 + x_4639_29 + x_4639_30 - 2 restored_node_4639_Las_Vegas = 0 
fc_4639_Los_Angeles: x_4639_31 + x_4639_29 + x_4639_32 - 2 restored_node_4639_Los_Angeles = 0 
fc_4639_Louisville: x_4639_27 + x_4639_33 + x_4639_14 + x_4639_34 + x_4639_24 - 2 restored_node_4639_Louisville = 0 
fc_4639_New_Orleans: x_4639_37 - 2 restored_node_4639_New_Orleans = 0 
fc_4639_New_York: x_4639_38 + x_4639_9 + x_4639_23 - 2 restored_node_4639_New_York = 0 
fc_4639_Birmingham: x_4639_19 + x_4639_11 + x_4639_15 + x_4639_34 - restored_dc_4639_Birmingham = 0 
fc_4639_Portland: x_4639_39 + x_4639_40 + x_4639_2 - 2 restored_node_4639_Portland = 0 
fc_4639_Salt_Lake_City: x_4639_41 + x_4639_30 + x_4639_42 + x_4639_0 + x_4639_20 - restored_dc_4639_Salt_Lake_City = 0 
fc_4639_San_Antonio: x_4639_17 + x_4639_26 - restored_4639 = 0 
fc_4639_San_Francisco: x_4639_40 + x_4639_31 + x_4639_28 + x_4639_41 - 2 restored_node_4639_San_Francisco = 0 
fc_4639_Seattle: x_4639_39 + x_4639_1 - 2 restored_node_4639_Seattle = 0 
fc_4639_Tallahassee: x_4639_37 + x_4639_10 - 2 restored_node_4639_Tallahassee = 0 
fc_4639_Tucson: x_4639_32 + x_4639_42 + x_4639_25 - 2 restored_node_4639_Tucson = 0 
fc_4639_Washington_DC: x_4639_13 + x_4639_38 + x_4639_33 - 2 restored_node_4639_Washington_DC = 0 
fc_4598_Billings: x_4598_0 + x_4598_1 + x_4598_2 + x_4598_3 + x_4598_4 - 2 restored_node_4598_Billings = 0 
fc_4598_Bismarck: x_4598_5 + x_4598_4 + x_4598_6 + x_4598_7 + x_4598_8 - restored_dc_4598_Bismarck = 0 
fc_4598_Ithaca: x_4598_9 + x_4598_8 - 2 restored_node_4598_Ithaca = 0 
fc_4598_Charleston: x_4598_10 + x_4598_11 + x_4598_12 - 2 restored_node_4598_Charleston = 0 
fc_4598_Charlotte: x_4598_12 + x_4598_13 + x_4598_14 + x_4598_15 - 2 restored_node_4598_Charlotte = 0 
fc_4598_Dallas: x_4598_16 + x_4598_17 + x_4598_18 + x_4598_19 - 2 restored_node_4598_Dallas = 0 
fc_4598_Denver: x_4598_3 + x_4598_20 + x_4598_21 + x_4598_5 + x_4598_22 - 2 restored_node_4598_Denver = 0 
fc_4598_Columbus: x_4598_7 + x_4598_23 + x_4598_24 - 2 restored_node_4598_Columbus = 0 
fc_4598_El_Paso: x_4598_21 + x_4598_25 + x_4598_18 + x_4598_26 - 2 restored_node_4598_El_Paso = 0 
fc_4598_Kansas_City: x_4598_22 + x_4598_6 + x_4598_16 + x_4598_27 - 2 restored_node_4598_Kansas_City = 0 
fc_4598_Las_Vegas: x_4598_28 + x_4598_29 + x_4598_30 - 2 restored_node_4598_Las_Vegas = 0 
fc_4598_Los_Angeles: x_4598_31 + x_4598_29 + x_4598_32 - 2 restored_node_4598_Los_Angeles = 0 
fc_4598_Louisville: x_4598_27 + x_4598_33 + x_4598_14 + x_4598_34 + x_4598_24 - 2 restored_node_4598_Louisville = 0 
fc_4598_New_Orleans: x_4598_37 - 2 restored_node_4598_New_Orleans = 0 
fc_4598_New_York: x_4598_38 + x_4598_9 + x_4598_23 - 2 restored_node_4598_New_York = 0 
fc_4598_Birmingham: x_4598_19 + x_4598_11 + x_4598_15 + x_4598_34 - restored_dc_4598_Birmingham = 0 
fc_4598_Portland: x_4598_39 + x_4598_40 + x_4598_2 - 2 restored_node_4598_Portland = 0 
fc_4598_Salt_Lake_City: x_4598_41 + x_4598_30 + x_4598_42 + x_4598_0 + x_4598_20 - restored_dc_4598_Salt_Lake_City = 0 
fc_4598_San_Antonio: x_4598_17 + x_4598_26 - 2 restored_node_4598_San_Antonio = 0 
fc_4598_San_Francisco: x_4598_40 + x_4598_31 + x_4598_28 + x_4598_41 - 2 restored_node_4598_San_Francisco = 0 
fc_4598_Seattle: x_4598_39 + x_4598_1 - 2 restored_node_4598_Seattle = 0 
fc_4598_Tallahassee: x_4598_37 + x_4598_10 - restored_4598 = 0 
fc_4598_Tucson: x_4598_32 + x_4598_42 + x_4598_25 - 2 restored_node_4598_Tucson = 0 
fc_4598_Washington_DC: x_4598_13 + x_4598_38 + x_4598_33 - 2 restored_node_4598_Washington_DC = 0 
fc_4772_Billings: x_4772_0 + x_4772_1 + x_4772_2 + x_4772_3 + x_4772_4 - 2 restored_node_4772_Billings = 0 
fc_4772_Bismarck: x_4772_5 + x_4772_4 + x_4772_6 + x_4772_7 + x_4772_8 - restored_dc_4772_Bismarck = 0 
fc_4772_Ithaca: x_4772_9 + x_4772_8 - 2 restored_node_4772_Ithaca = 0 
fc_4772_Charleston: x_4772_10 + x_4772_11 + x_4772_12 - 2 restored_node_4772_Charleston = 0 
fc_4772_Charlotte: x_4772_12 + x_4772_13 + x_4772_14 + x_4772_15 - 2 restored_node_4772_Charlotte = 0 
fc_4772_Dallas: x_4772_16 + x_4772_17 + x_4772_18 + x_4772_19 - 2 restored_node_4772_Dallas = 0 
fc_4772_Denver: x_4772_3 + x_4772_20 + x_4772_21 + x_4772_5 + x_4772_22 - 2 restored_node_4772_Denver = 0 
fc_4772_Columbus: x_4772_7 + x_4772_23 + x_4772_24 - 2 restored_node_4772_Columbus = 0 
fc_4772_El_Paso: x_4772_21 + x_4772_25 + x_4772_18 + x_4772_26 - 2 restored_node_4772_El_Paso = 0 
fc_4772_Kansas_City: x_4772_22 + x_4772_6 + x_4772_16 + x_4772_27 - 2 restored_node_4772_Kansas_City = 0 
fc_4772_Las_Vegas: x_4772_28 + x_4772_29 + x_4772_30 - 2 restored_node_4772_Las_Vegas = 0 
fc_4772_Los_Angeles: x_4772_31 + x_4772_29 + x_4772_32 - 2 restored_node_4772_Los_Angeles = 0 
fc_4772_Louisville: x_4772_27 + x_4772_33 + x_4772_14 + x_4772_34 + x_4772_24 - 2 restored_node_4772_Louisville = 0 
fc_4772_New_Orleans: x_4772_37 - 2 restored_node_4772_New_Orleans = 0 
fc_4772_New_York: x_4772_38 + x_4772_9 + x_4772_23 - 2 restored_node_4772_New_York = 0 
fc_4772_Birmingham: x_4772_19 + x_4772_11 + x_4772_15 + x_4772_34 - restored_dc_4772_Birmingham = 0 
fc_4772_Portland: x_4772_39 + x_4772_40 + x_4772_2 - 2 restored_node_4772_Portland = 0 
fc_4772_Salt_Lake_City: x_4772_41 + x_4772_30 + x_4772_42 + x_4772_0 + x_4772_20 - restored_dc_4772_Salt_Lake_City = 0 
fc_4772_San_Antonio: x_4772_17 + x_4772_26 - 2 restored_node_4772_San_Antonio = 0 
fc_4772_San_Francisco: x_4772_40 + x_4772_31 + x_4772_28 + x_4772_41 - 2 restored_node_4772_San_Francisco = 0 
fc_4772_Seattle: x_4772_39 + x_4772_1 - 2 restored_node_4772_Seattle = 0 
fc_4772_Tallahassee: x_4772_37 + x_4772_10 - restored_4772 = 0 
fc_4772_Tucson: x_4772_32 + x_4772_42 + x_4772_25 - 2 restored_node_4772_Tucson = 0 
fc_4772_Washington_DC: x_4772_13 + x_4772_38 + x_4772_33 - 2 restored_node_4772_Washington_DC = 0 
fc_4781_Billings: x_4781_0 + x_4781_1 + x_4781_2 + x_4781_3 + x_4781_4 - 2 restored_node_4781_Billings = 0 
fc_4781_Bismarck: x_4781_5 + x_4781_4 + x_4781_6 + x_4781_7 + x_4781_8 - restored_dc_4781_Bismarck = 0 
fc_4781_Ithaca: x_4781_9 + x_4781_8 - 2 restored_node_4781_Ithaca = 0 
fc_4781_Charleston: x_4781_10 + x_4781_11 + x_4781_12 - 2 restored_node_4781_Charleston = 0 
fc_4781_Charlotte: x_4781_12 + x_4781_13 + x_4781_14 + x_4781_15 - 2 restored_node_4781_Charlotte = 0 
fc_4781_Dallas: x_4781_16 + x_4781_17 + x_4781_18 + x_4781_19 - 2 restored_node_4781_Dallas = 0 
fc_4781_Denver: x_4781_3 + x_4781_20 + x_4781_21 + x_4781_5 + x_4781_22 - 2 restored_node_4781_Denver = 0 
fc_4781_Columbus: x_4781_7 + x_4781_23 + x_4781_24 - 2 restored_node_4781_Columbus = 0 
fc_4781_El_Paso: x_4781_21 + x_4781_25 + x_4781_18 + x_4781_26 - 2 restored_node_4781_El_Paso = 0 
fc_4781_Kansas_City: x_4781_22 + x_4781_6 + x_4781_16 + x_4781_27 - 2 restored_node_4781_Kansas_City = 0 
fc_4781_Las_Vegas: x_4781_28 + x_4781_29 + x_4781_30 - 2 restored_node_4781_Las_Vegas = 0 
fc_4781_Los_Angeles: x_4781_31 + x_4781_29 + x_4781_32 - 2 restored_node_4781_Los_Angeles = 0 
fc_4781_Louisville: x_4781_27 + x_4781_33 + x_4781_14 + x_4781_34 + x_4781_24 - 2 restored_node_4781_Louisville = 0 
fc_4781_New_Orleans: x_4781_37 - restored_4781 = 0 
fc_4781_New_York: x_4781_38 + x_4781_9 + x_4781_23 - 2 restored_node_4781_New_York = 0 
fc_4781_Birmingham: x_4781_19 + x_4781_11 + x_4781_15 + x_4781_34 - restored_dc_4781_Birmingham = 0 
fc_4781_Portland: x_4781_39 + x_4781_40 + x_4781_2 - 2 restored_node_4781_Portland = 0 
fc_4781_Salt_Lake_City: x_4781_41 + x_4781_30 + x_4781_42 + x_4781_0 + x_4781_20 - restored_dc_4781_Salt_Lake_City = 0 
fc_4781_San_Antonio: x_4781_17 + x_4781_26 - 2 restored_node_4781_San_Antonio = 0 
fc_4781_San_Francisco: x_4781_40 + x_4781_31 + x_4781_28 + x_4781_41 - 2 restored_node_4781_San_Francisco = 0 
fc_4781_Seattle: x_4781_39 + x_4781_1 - 2 restored_node_4781_Seattle = 0 
fc_4781_Tallahassee: x_4781_37 + x_4781_10 - 2 restored_node_4781_Tallahassee = 0 
fc_4781_Tucson: x_4781_32 + x_4781_42 + x_4781_25 - 2 restored_node_4781_Tucson = 0 
fc_4781_Washington_DC: x_4781_13 + x_4781_38 + x_4781_33 - 2 restored_node_4781_Washington_DC = 0 
fc_4624_Billings: x_4624_0 + x_4624_1 + x_4624_2 + x_4624_3 + x_4624_4 - 2 restored_node_4624_Billings = 0 
fc_4624_Bismarck: x_4624_5 + x_4624_4 + x_4624_6 + x_4624_7 + x_4624_8 - restored_dc_4624_Bismarck = 0 
fc_4624_Ithaca: x_4624_9 + x_4624_8 - 2 restored_node_4624_Ithaca = 0 
fc_4624_Charleston: x_4624_10 + x_4624_11 + x_4624_12 - 2 restored_node_4624_Charleston = 0 
fc_4624_Charlotte: x_4624_12 + x_4624_13 + x_4624_14 + x_4624_15 - 2 restored_node_4624_Charlotte = 0 
fc_4624_Dallas: x_4624_16 + x_4624_17 + x_4624_18 + x_4624_19 - 2 restored_node_4624_Dallas = 0 
fc_4624_Denver: x_4624_3 + x_4624_20 + x_4624_21 + x_4624_5 + x_4624_22 - 2 restored_node_4624_Denver = 0 
fc_4624_Columbus: x_4624_7 + x_4624_23 + x_4624_24 - 2 restored_node_4624_Columbus = 0 
fc_4624_El_Paso: x_4624_21 + x_4624_25 + x_4624_18 + x_4624_26 - 2 restored_node_4624_El_Paso = 0 
fc_4624_Kansas_City: x_4624_22 + x_4624_6 + x_4624_16 + x_4624_27 - 2 restored_node_4624_Kansas_City = 0 
fc_4624_Las_Vegas: x_4624_28 + x_4624_29 + x_4624_30 - 2 restored_node_4624_Las_Vegas = 0 
fc_4624_Los_Angeles: x_4624_31 + x_4624_29 + x_4624_32 - 2 restored_node_4624_Los_Angeles = 0 
fc_4624_Louisville: x_4624_27 + x_4624_33 + x_4624_14 + x_4624_34 + x_4624_24 - 2 restored_node_4624_Louisville = 0 
fc_4624_New_Orleans: x_4624_37 - 2 restored_node_4624_New_Orleans = 0 
fc_4624_New_York: x_4624_38 + x_4624_9 + x_4624_23 - 2 restored_node_4624_New_York = 0 
fc_4624_Birmingham: x_4624_19 + x_4624_11 + x_4624_15 + x_4624_34 - restored_dc_4624_Birmingham = 0 
fc_4624_Portland: x_4624_39 + x_4624_40 + x_4624_2 - 2 restored_node_4624_Portland = 0 
fc_4624_Salt_Lake_City: x_4624_41 + x_4624_30 + x_4624_42 + x_4624_0 + x_4624_20 - restored_dc_4624_Salt_Lake_City = 0 
fc_4624_San_Antonio: x_4624_17 + x_4624_26 - 2 restored_node_4624_San_Antonio = 0 
fc_4624_San_Francisco: x_4624_40 + x_4624_31 + x_4624_28 + x_4624_41 - 2 restored_node_4624_San_Francisco = 0 
fc_4624_Seattle: x_4624_39 + x_4624_1 - 2 restored_node_4624_Seattle = 0 
fc_4624_Tallahassee: x_4624_37 + x_4624_10 - restored_4624 = 0 
fc_4624_Tucson: x_4624_32 + x_4624_42 + x_4624_25 - 2 restored_node_4624_Tucson = 0 
fc_4624_Washington_DC: x_4624_13 + x_4624_38 + x_4624_33 - 2 restored_node_4624_Washington_DC = 0 
fc_4877_Billings: x_4877_0 + x_4877_1 + x_4877_2 + x_4877_3 + x_4877_4 - 2 restored_node_4877_Billings = 0 
fc_4877_Bismarck: x_4877_5 + x_4877_4 + x_4877_6 + x_4877_7 + x_4877_8 - restored_dc_4877_Bismarck = 0 
fc_4877_Ithaca: x_4877_9 + x_4877_8 - 2 restored_node_4877_Ithaca = 0 
fc_4877_Charleston: x_4877_10 + x_4877_11 + x_4877_12 - 2 restored_node_4877_Charleston = 0 
fc_4877_Charlotte: x_4877_12 + x_4877_13 + x_4877_14 + x_4877_15 - 2 restored_node_4877_Charlotte = 0 
fc_4877_Dallas: x_4877_16 + x_4877_17 + x_4877_18 + x_4877_19 - 2 restored_node_4877_Dallas = 0 
fc_4877_Denver: x_4877_3 + x_4877_20 + x_4877_21 + x_4877_5 + x_4877_22 - 2 restored_node_4877_Denver = 0 
fc_4877_Columbus: x_4877_7 + x_4877_23 + x_4877_24 - 2 restored_node_4877_Columbus = 0 
fc_4877_El_Paso: x_4877_21 + x_4877_25 + x_4877_18 + x_4877_26 - 2 restored_node_4877_El_Paso = 0 
fc_4877_Kansas_City: x_4877_22 + x_4877_6 + x_4877_16 + x_4877_27 - 2 restored_node_4877_Kansas_City = 0 
fc_4877_Las_Vegas: x_4877_28 + x_4877_29 + x_4877_30 - 2 restored_node_4877_Las_Vegas = 0 
fc_4877_Los_Angeles: x_4877_31 + x_4877_29 + x_4877_32 - 2 restored_node_4877_Los_Angeles = 0 
fc_4877_Louisville: x_4877_27 + x_4877_33 + x_4877_14 + x_4877_34 + x_4877_24 - 2 restored_node_4877_Louisville = 0 
fc_4877_New_Orleans: x_4877_37 - 2 restored_node_4877_New_Orleans = 0 
fc_4877_New_York: x_4877_38 + x_4877_9 + x_4877_23 - 2 restored_node_4877_New_York = 0 
fc_4877_Birmingham: x_4877_19 + x_4877_11 + x_4877_15 + x_4877_34 - restored_dc_4877_Birmingham = 0 
fc_4877_Portland: x_4877_39 + x_4877_40 + x_4877_2 - 2 restored_node_4877_Portland = 0 
fc_4877_Salt_Lake_City: x_4877_41 + x_4877_30 + x_4877_42 + x_4877_0 + x_4877_20 - restored_dc_4877_Salt_Lake_City = 0 
fc_4877_San_Antonio: x_4877_17 + x_4877_26 - restored_4877 = 0 
fc_4877_San_Francisco: x_4877_40 + x_4877_31 + x_4877_28 + x_4877_41 - 2 restored_node_4877_San_Francisco = 0 
fc_4877_Seattle: x_4877_39 + x_4877_1 - 2 restored_node_4877_Seattle = 0 
fc_4877_Tallahassee: x_4877_37 + x_4877_10 - 2 restored_node_4877_Tallahassee = 0 
fc_4877_Tucson: x_4877_32 + x_4877_42 + x_4877_25 - 2 restored_node_4877_Tucson = 0 
fc_4877_Washington_DC: x_4877_13 + x_4877_38 + x_4877_33 - 2 restored_node_4877_Washington_DC = 0 
fc_4255_Billings: x_4255_0 + x_4255_1 + x_4255_2 + x_4255_3 + x_4255_4 - 2 restored_node_4255_Billings = 0 
fc_4255_Bismarck: x_4255_5 + x_4255_4 + x_4255_6 + x_4255_7 + x_4255_8 - restored_dc_4255_Bismarck = 0 
fc_4255_Ithaca: x_4255_9 + x_4255_8 - 2 restored_node_4255_Ithaca = 0 
fc_4255_Charleston: x_4255_10 + x_4255_11 + x_4255_12 - 2 restored_node_4255_Charleston = 0 
fc_4255_Charlotte: x_4255_12 + x_4255_13 + x_4255_14 + x_4255_15 - 2 restored_node_4255_Charlotte = 0 
fc_4255_Dallas: x_4255_16 + x_4255_17 + x_4255_18 + x_4255_19 - 2 restored_node_4255_Dallas = 0 
fc_4255_Denver: x_4255_3 + x_4255_20 + x_4255_21 + x_4255_5 + x_4255_22 - 2 restored_node_4255_Denver = 0 
fc_4255_Columbus: x_4255_7 + x_4255_23 + x_4255_24 - 2 restored_node_4255_Columbus = 0 
fc_4255_El_Paso: x_4255_21 + x_4255_25 + x_4255_18 + x_4255_26 - 2 restored_node_4255_El_Paso = 0 
fc_4255_Kansas_City: x_4255_22 + x_4255_6 + x_4255_16 + x_4255_27 - 2 restored_node_4255_Kansas_City = 0 
fc_4255_Las_Vegas: x_4255_28 + x_4255_29 + x_4255_30 - 2 restored_node_4255_Las_Vegas = 0 
fc_4255_Los_Angeles: x_4255_31 + x_4255_29 + x_4255_32 - 2 restored_node_4255_Los_Angeles = 0 
fc_4255_Louisville: x_4255_27 + x_4255_33 + x_4255_14 + x_4255_34 + x_4255_24 - 2 restored_node_4255_Louisville = 0 
fc_4255_New_Orleans: x_4255_37 - 2 restored_node_4255_New_Orleans = 0 
fc_4255_New_York: x_4255_38 + x_4255_9 + x_4255_23 - 2 restored_node_4255_New_York = 0 
fc_4255_Birmingham: x_4255_19 + x_4255_11 + x_4255_15 + x_4255_34 - restored_dc_4255_Birmingham = 0 
fc_4255_Portland: x_4255_39 + x_4255_40 + x_4255_2 - 2 restored_node_4255_Portland = 0 
fc_4255_Salt_Lake_City: x_4255_41 + x_4255_30 + x_4255_42 + x_4255_0 + x_4255_20 - restored_dc_4255_Salt_Lake_City = 0 
fc_4255_San_Antonio: x_4255_17 + x_4255_26 - restored_4255 = 0 
fc_4255_San_Francisco: x_4255_40 + x_4255_31 + x_4255_28 + x_4255_41 - 2 restored_node_4255_San_Francisco = 0 
fc_4255_Seattle: x_4255_39 + x_4255_1 - 2 restored_node_4255_Seattle = 0 
fc_4255_Tallahassee: x_4255_37 + x_4255_10 - 2 restored_node_4255_Tallahassee = 0 
fc_4255_Tucson: x_4255_32 + x_4255_42 + x_4255_25 - 2 restored_node_4255_Tucson = 0 
fc_4255_Washington_DC: x_4255_13 + x_4255_38 + x_4255_33 - 2 restored_node_4255_Washington_DC = 0 
fc_4631_Billings: x_4631_0 + x_4631_1 + x_4631_2 + x_4631_3 + x_4631_4 - 2 restored_node_4631_Billings = 0 
fc_4631_Bismarck: x_4631_5 + x_4631_4 + x_4631_6 + x_4631_7 + x_4631_8 - restored_dc_4631_Bismarck = 0 
fc_4631_Ithaca: x_4631_9 + x_4631_8 - 2 restored_node_4631_Ithaca = 0 
fc_4631_Charleston: x_4631_10 + x_4631_11 + x_4631_12 - 2 restored_node_4631_Charleston = 0 
fc_4631_Charlotte: x_4631_12 + x_4631_13 + x_4631_14 + x_4631_15 - 2 restored_node_4631_Charlotte = 0 
fc_4631_Dallas: x_4631_16 + x_4631_17 + x_4631_18 + x_4631_19 - 2 restored_node_4631_Dallas = 0 
fc_4631_Denver: x_4631_3 + x_4631_20 + x_4631_21 + x_4631_5 + x_4631_22 - 2 restored_node_4631_Denver = 0 
fc_4631_Columbus: x_4631_7 + x_4631_23 + x_4631_24 - 2 restored_node_4631_Columbus = 0 
fc_4631_El_Paso: x_4631_21 + x_4631_25 + x_4631_18 + x_4631_26 - 2 restored_node_4631_El_Paso = 0 
fc_4631_Kansas_City: x_4631_22 + x_4631_6 + x_4631_16 + x_4631_27 - 2 restored_node_4631_Kansas_City = 0 
fc_4631_Las_Vegas: x_4631_28 + x_4631_29 + x_4631_30 - 2 restored_node_4631_Las_Vegas = 0 
fc_4631_Los_Angeles: x_4631_31 + x_4631_29 + x_4631_32 - 2 restored_node_4631_Los_Angeles = 0 
fc_4631_Louisville: x_4631_27 + x_4631_33 + x_4631_14 + x_4631_34 + x_4631_24 - 2 restored_node_4631_Louisville = 0 
fc_4631_New_Orleans: x_4631_37 - 2 restored_node_4631_New_Orleans = 0 
fc_4631_New_York: x_4631_38 + x_4631_9 + x_4631_23 - 2 restored_node_4631_New_York = 0 
fc_4631_Birmingham: x_4631_19 + x_4631_11 + x_4631_15 + x_4631_34 - restored_dc_4631_Birmingham = 0 
fc_4631_Portland: x_4631_39 + x_4631_40 + x_4631_2 - 2 restored_node_4631_Portland = 0 
fc_4631_Salt_Lake_City: x_4631_41 + x_4631_30 + x_4631_42 + x_4631_0 + x_4631_20 - restored_dc_4631_Salt_Lake_City = 0 
fc_4631_San_Antonio: x_4631_17 + x_4631_26 - 2 restored_node_4631_San_Antonio = 0 
fc_4631_San_Francisco: x_4631_40 + x_4631_31 + x_4631_28 + x_4631_41 - 2 restored_node_4631_San_Francisco = 0 
fc_4631_Seattle: x_4631_39 + x_4631_1 - 2 restored_node_4631_Seattle = 0 
fc_4631_Tallahassee: x_4631_37 + x_4631_10 - restored_4631 = 0 
fc_4631_Tucson: x_4631_32 + x_4631_42 + x_4631_25 - 2 restored_node_4631_Tucson = 0 
fc_4631_Washington_DC: x_4631_13 + x_4631_38 + x_4631_33 - 2 restored_node_4631_Washington_DC = 0 
fc_3740_Billings: x_3740_0 + x_3740_1 + x_3740_2 + x_3740_3 + x_3740_4 - 2 restored_node_3740_Billings = 0 
fc_3740_Bismarck: x_3740_5 + x_3740_4 + x_3740_6 + x_3740_7 + x_3740_8 - restored_dc_3740_Bismarck = 0 
fc_3740_Ithaca: x_3740_9 + x_3740_8 - 2 restored_node_3740_Ithaca = 0 
fc_3740_Charleston: x_3740_10 + x_3740_11 + x_3740_12 - 2 restored_node_3740_Charleston = 0 
fc_3740_Charlotte: x_3740_12 + x_3740_13 + x_3740_14 + x_3740_15 - 2 restored_node_3740_Charlotte = 0 
fc_3740_Dallas: x_3740_16 + x_3740_17 + x_3740_18 + x_3740_19 - 2 restored_node_3740_Dallas = 0 
fc_3740_Denver: x_3740_3 + x_3740_20 + x_3740_21 + x_3740_5 + x_3740_22 - 2 restored_node_3740_Denver = 0 
fc_3740_Columbus: x_3740_7 + x_3740_23 + x_3740_24 - 2 restored_node_3740_Columbus = 0 
fc_3740_El_Paso: x_3740_21 + x_3740_25 + x_3740_18 + x_3740_26 - 2 restored_node_3740_El_Paso = 0 
fc_3740_Kansas_City: x_3740_22 + x_3740_6 + x_3740_16 + x_3740_27 - 2 restored_node_3740_Kansas_City = 0 
fc_3740_Las_Vegas: x_3740_28 + x_3740_29 + x_3740_30 - 2 restored_node_3740_Las_Vegas = 0 
fc_3740_Los_Angeles: x_3740_31 + x_3740_29 + x_3740_32 - 2 restored_node_3740_Los_Angeles = 0 
fc_3740_Louisville: x_3740_27 + x_3740_33 + x_3740_14 + x_3740_34 + x_3740_24 - 2 restored_node_3740_Louisville = 0 
fc_3740_New_Orleans: x_3740_37 - restored_3740 = 0 
fc_3740_New_York: x_3740_38 + x_3740_9 + x_3740_23 - 2 restored_node_3740_New_York = 0 
fc_3740_Birmingham: x_3740_19 + x_3740_11 + x_3740_15 + x_3740_34 - restored_dc_3740_Birmingham = 0 
fc_3740_Portland: x_3740_39 + x_3740_40 + x_3740_2 - 2 restored_node_3740_Portland = 0 
fc_3740_Salt_Lake_City: x_3740_41 + x_3740_30 + x_3740_42 + x_3740_0 + x_3740_20 - restored_dc_3740_Salt_Lake_City = 0 
fc_3740_San_Antonio: x_3740_17 + x_3740_26 - 2 restored_node_3740_San_Antonio = 0 
fc_3740_San_Francisco: x_3740_40 + x_3740_31 + x_3740_28 + x_3740_41 - 2 restored_node_3740_San_Francisco = 0 
fc_3740_Seattle: x_3740_39 + x_3740_1 - 2 restored_node_3740_Seattle = 0 
fc_3740_Tallahassee: x_3740_37 + x_3740_10 - 2 restored_node_3740_Tallahassee = 0 
fc_3740_Tucson: x_3740_32 + x_3740_42 + x_3740_25 - 2 restored_node_3740_Tucson = 0 
fc_3740_Washington_DC: x_3740_13 + x_3740_38 + x_3740_33 - 2 restored_node_3740_Washington_DC = 0 
fc_4637_Billings: x_4637_0 + x_4637_1 + x_4637_2 + x_4637_3 + x_4637_4 - 2 restored_node_4637_Billings = 0 
fc_4637_Bismarck: x_4637_5 + x_4637_4 + x_4637_6 + x_4637_7 + x_4637_8 - restored_dc_4637_Bismarck = 0 
fc_4637_Ithaca: x_4637_9 + x_4637_8 - 2 restored_node_4637_Ithaca = 0 
fc_4637_Charleston: x_4637_10 + x_4637_11 + x_4637_12 - 2 restored_node_4637_Charleston = 0 
fc_4637_Charlotte: x_4637_12 + x_4637_13 + x_4637_14 + x_4637_15 - 2 restored_node_4637_Charlotte = 0 
fc_4637_Dallas: x_4637_16 + x_4637_17 + x_4637_18 + x_4637_19 - 2 restored_node_4637_Dallas = 0 
fc_4637_Denver: x_4637_3 + x_4637_20 + x_4637_21 + x_4637_5 + x_4637_22 - 2 restored_node_4637_Denver = 0 
fc_4637_Columbus: x_4637_7 + x_4637_23 + x_4637_24 - 2 restored_node_4637_Columbus = 0 
fc_4637_El_Paso: x_4637_21 + x_4637_25 + x_4637_18 + x_4637_26 - 2 restored_node_4637_El_Paso = 0 
fc_4637_Kansas_City: x_4637_22 + x_4637_6 + x_4637_16 + x_4637_27 - 2 restored_node_4637_Kansas_City = 0 
fc_4637_Las_Vegas: x_4637_28 + x_4637_29 + x_4637_30 - 2 restored_node_4637_Las_Vegas = 0 
fc_4637_Los_Angeles: x_4637_31 + x_4637_29 + x_4637_32 - 2 restored_node_4637_Los_Angeles = 0 
fc_4637_Louisville: x_4637_27 + x_4637_33 + x_4637_14 + x_4637_34 + x_4637_24 - 2 restored_node_4637_Louisville = 0 
fc_4637_New_Orleans: x_4637_37 - 2 restored_node_4637_New_Orleans = 0 
fc_4637_New_York: x_4637_38 + x_4637_9 + x_4637_23 - 2 restored_node_4637_New_York = 0 
fc_4637_Birmingham: x_4637_19 + x_4637_11 + x_4637_15 + x_4637_34 - restored_dc_4637_Birmingham = 0 
fc_4637_Portland: x_4637_39 + x_4637_40 + x_4637_2 - 2 restored_node_4637_Portland = 0 
fc_4637_Salt_Lake_City: x_4637_41 + x_4637_30 + x_4637_42 + x_4637_0 + x_4637_20 - restored_dc_4637_Salt_Lake_City = 0 
fc_4637_San_Antonio: x_4637_17 + x_4637_26 - 2 restored_node_4637_San_Antonio = 0 
fc_4637_San_Francisco: x_4637_40 + x_4637_31 + x_4637_28 + x_4637_41 - 2 restored_node_4637_San_Francisco = 0 
fc_4637_Seattle: x_4637_39 + x_4637_1 - 2 restored_node_4637_Seattle = 0 
fc_4637_Tallahassee: x_4637_37 + x_4637_10 - restored_4637 = 0 
fc_4637_Tucson: x_4637_32 + x_4637_42 + x_4637_25 - 2 restored_node_4637_Tucson = 0 
fc_4637_Washington_DC: x_4637_13 + x_4637_38 + x_4637_33 - 2 restored_node_4637_Washington_DC = 0 
fc_3691_Billings: x_3691_0 + x_3691_1 + x_3691_2 + x_3691_3 + x_3691_4 - 2 restored_node_3691_Billings = 0 
fc_3691_Bismarck: x_3691_5 + x_3691_4 + x_3691_6 + x_3691_7 + x_3691_8 - restored_dc_3691_Bismarck = 0 
fc_3691_Ithaca: x_3691_9 + x_3691_8 - 2 restored_node_3691_Ithaca = 0 
fc_3691_Charleston: x_3691_10 + x_3691_11 + x_3691_12 - 2 restored_node_3691_Charleston = 0 
fc_3691_Charlotte: x_3691_12 + x_3691_13 + x_3691_14 + x_3691_15 - 2 restored_node_3691_Charlotte = 0 
fc_3691_Dallas: x_3691_16 + x_3691_17 + x_3691_18 + x_3691_19 - 2 restored_node_3691_Dallas = 0 
fc_3691_Denver: x_3691_3 + x_3691_20 + x_3691_21 + x_3691_5 + x_3691_22 - 2 restored_node_3691_Denver = 0 
fc_3691_Columbus: x_3691_7 + x_3691_23 + x_3691_24 - 2 restored_node_3691_Columbus = 0 
fc_3691_El_Paso: x_3691_21 + x_3691_25 + x_3691_18 + x_3691_26 - 2 restored_node_3691_El_Paso = 0 
fc_3691_Kansas_City: x_3691_22 + x_3691_6 + x_3691_16 + x_3691_27 - 2 restored_node_3691_Kansas_City = 0 
fc_3691_Las_Vegas: x_3691_28 + x_3691_29 + x_3691_30 - 2 restored_node_3691_Las_Vegas = 0 
fc_3691_Los_Angeles: x_3691_31 + x_3691_29 + x_3691_32 - 2 restored_node_3691_Los_Angeles = 0 
fc_3691_Louisville: x_3691_27 + x_3691_33 + x_3691_14 + x_3691_34 + x_3691_24 - 2 restored_node_3691_Louisville = 0 
fc_3691_New_Orleans: x_3691_37 - 2 restored_node_3691_New_Orleans = 0 
fc_3691_New_York: x_3691_38 + x_3691_9 + x_3691_23 - 2 restored_node_3691_New_York = 0 
fc_3691_Birmingham: x_3691_19 + x_3691_11 + x_3691_15 + x_3691_34 - restored_dc_3691_Birmingham = 0 
fc_3691_Portland: x_3691_39 + x_3691_40 + x_3691_2 - 2 restored_node_3691_Portland = 0 
fc_3691_Salt_Lake_City: x_3691_41 + x_3691_30 + x_3691_42 + x_3691_0 + x_3691_20 - restored_dc_3691_Salt_Lake_City = 0 
fc_3691_San_Antonio: x_3691_17 + x_3691_26 - 2 restored_node_3691_San_Antonio = 0 
fc_3691_San_Francisco: x_3691_40 + x_3691_31 + x_3691_28 + x_3691_41 - 2 restored_node_3691_San_Francisco = 0 
fc_3691_Seattle: x_3691_39 + x_3691_1 - 2 restored_node_3691_Seattle = 0 
fc_3691_Tallahassee: x_3691_37 + x_3691_10 - restored_3691 = 0 
fc_3691_Tucson: x_3691_32 + x_3691_42 + x_3691_25 - 2 restored_node_3691_Tucson = 0 
fc_3691_Washington_DC: x_3691_13 + x_3691_38 + x_3691_33 - 2 restored_node_3691_Washington_DC = 0 
fc_4709_Billings: x_4709_0 + x_4709_1 + x_4709_2 + x_4709_3 + x_4709_4 - 2 restored_node_4709_Billings = 0 
fc_4709_Bismarck: x_4709_5 + x_4709_4 + x_4709_6 + x_4709_7 + x_4709_8 - restored_dc_4709_Bismarck = 0 
fc_4709_Ithaca: x_4709_9 + x_4709_8 - 2 restored_node_4709_Ithaca = 0 
fc_4709_Charleston: x_4709_10 + x_4709_11 + x_4709_12 - 2 restored_node_4709_Charleston = 0 
fc_4709_Charlotte: x_4709_12 + x_4709_13 + x_4709_14 + x_4709_15 - 2 restored_node_4709_Charlotte = 0 
fc_4709_Dallas: x_4709_16 + x_4709_17 + x_4709_18 + x_4709_19 - 2 restored_node_4709_Dallas = 0 
fc_4709_Denver: x_4709_3 + x_4709_20 + x_4709_21 + x_4709_5 + x_4709_22 - 2 restored_node_4709_Denver = 0 
fc_4709_Columbus: x_4709_7 + x_4709_23 + x_4709_24 - 2 restored_node_4709_Columbus = 0 
fc_4709_El_Paso: x_4709_21 + x_4709_25 + x_4709_18 + x_4709_26 - 2 restored_node_4709_El_Paso = 0 
fc_4709_Kansas_City: x_4709_22 + x_4709_6 + x_4709_16 + x_4709_27 - 2 restored_node_4709_Kansas_City = 0 
fc_4709_Las_Vegas: x_4709_28 + x_4709_29 + x_4709_30 - 2 restored_node_4709_Las_Vegas = 0 
fc_4709_Los_Angeles: x_4709_31 + x_4709_29 + x_4709_32 - 2 restored_node_4709_Los_Angeles = 0 
fc_4709_Louisville: x_4709_27 + x_4709_33 + x_4709_14 + x_4709_34 + x_4709_24 - 2 restored_node_4709_Louisville = 0 
fc_4709_New_Orleans: x_4709_37 - restored_4709 = 0 
fc_4709_New_York: x_4709_38 + x_4709_9 + x_4709_23 - 2 restored_node_4709_New_York = 0 
fc_4709_Birmingham: x_4709_19 + x_4709_11 + x_4709_15 + x_4709_34 - restored_dc_4709_Birmingham = 0 
fc_4709_Portland: x_4709_39 + x_4709_40 + x_4709_2 - 2 restored_node_4709_Portland = 0 
fc_4709_Salt_Lake_City: x_4709_41 + x_4709_30 + x_4709_42 + x_4709_0 + x_4709_20 - restored_dc_4709_Salt_Lake_City = 0 
fc_4709_San_Antonio: x_4709_17 + x_4709_26 - 2 restored_node_4709_San_Antonio = 0 
fc_4709_San_Francisco: x_4709_40 + x_4709_31 + x_4709_28 + x_4709_41 - 2 restored_node_4709_San_Francisco = 0 
fc_4709_Seattle: x_4709_39 + x_4709_1 - 2 restored_node_4709_Seattle = 0 
fc_4709_Tallahassee: x_4709_37 + x_4709_10 - 2 restored_node_4709_Tallahassee = 0 
fc_4709_Tucson: x_4709_32 + x_4709_42 + x_4709_25 - 2 restored_node_4709_Tucson = 0 
fc_4709_Washington_DC: x_4709_13 + x_4709_38 + x_4709_33 - 2 restored_node_4709_Washington_DC = 0 
fc_4758_Billings: x_4758_0 + x_4758_1 + x_4758_2 + x_4758_3 + x_4758_4 - 2 restored_node_4758_Billings = 0 
fc_4758_Bismarck: x_4758_5 + x_4758_4 + x_4758_6 + x_4758_7 + x_4758_8 - restored_dc_4758_Bismarck = 0 
fc_4758_Ithaca: x_4758_9 + x_4758_8 - 2 restored_node_4758_Ithaca = 0 
fc_4758_Charleston: x_4758_10 + x_4758_11 + x_4758_12 - 2 restored_node_4758_Charleston = 0 
fc_4758_Charlotte: x_4758_12 + x_4758_13 + x_4758_14 + x_4758_15 - 2 restored_node_4758_Charlotte = 0 
fc_4758_Dallas: x_4758_16 + x_4758_17 + x_4758_18 + x_4758_19 - 2 restored_node_4758_Dallas = 0 
fc_4758_Denver: x_4758_3 + x_4758_20 + x_4758_21 + x_4758_5 + x_4758_22 - 2 restored_node_4758_Denver = 0 
fc_4758_Columbus: x_4758_7 + x_4758_23 + x_4758_24 - 2 restored_node_4758_Columbus = 0 
fc_4758_El_Paso: x_4758_21 + x_4758_25 + x_4758_18 + x_4758_26 - 2 restored_node_4758_El_Paso = 0 
fc_4758_Kansas_City: x_4758_22 + x_4758_6 + x_4758_16 + x_4758_27 - 2 restored_node_4758_Kansas_City = 0 
fc_4758_Las_Vegas: x_4758_28 + x_4758_29 + x_4758_30 - 2 restored_node_4758_Las_Vegas = 0 
fc_4758_Los_Angeles: x_4758_31 + x_4758_29 + x_4758_32 - 2 restored_node_4758_Los_Angeles = 0 
fc_4758_Louisville: x_4758_27 + x_4758_33 + x_4758_14 + x_4758_34 + x_4758_24 - 2 restored_node_4758_Louisville = 0 
fc_4758_New_Orleans: x_4758_37 - restored_4758 = 0 
fc_4758_New_York: x_4758_38 + x_4758_9 + x_4758_23 - 2 restored_node_4758_New_York = 0 
fc_4758_Birmingham: x_4758_19 + x_4758_11 + x_4758_15 + x_4758_34 - restored_dc_4758_Birmingham = 0 
fc_4758_Portland: x_4758_39 + x_4758_40 + x_4758_2 - 2 restored_node_4758_Portland = 0 
fc_4758_Salt_Lake_City: x_4758_41 + x_4758_30 + x_4758_42 + x_4758_0 + x_4758_20 - restored_dc_4758_Salt_Lake_City = 0 
fc_4758_San_Antonio: x_4758_17 + x_4758_26 - 2 restored_node_4758_San_Antonio = 0 
fc_4758_San_Francisco: x_4758_40 + x_4758_31 + x_4758_28 + x_4758_41 - 2 restored_node_4758_San_Francisco = 0 
fc_4758_Seattle: x_4758_39 + x_4758_1 - 2 restored_node_4758_Seattle = 0 
fc_4758_Tallahassee: x_4758_37 + x_4758_10 - 2 restored_node_4758_Tallahassee = 0 
fc_4758_Tucson: x_4758_32 + x_4758_42 + x_4758_25 - 2 restored_node_4758_Tucson = 0 
fc_4758_Washington_DC: x_4758_13 + x_4758_38 + x_4758_33 - 2 restored_node_4758_Washington_DC = 0 
fc_4548_Billings: x_4548_0 + x_4548_1 + x_4548_2 + x_4548_3 + x_4548_4 - 2 restored_node_4548_Billings = 0 
fc_4548_Bismarck: x_4548_5 + x_4548_4 + x_4548_6 + x_4548_7 + x_4548_8 - restored_dc_4548_Bismarck = 0 
fc_4548_Ithaca: x_4548_9 + x_4548_8 - 2 restored_node_4548_Ithaca = 0 
fc_4548_Charleston: x_4548_10 + x_4548_11 + x_4548_12 - 2 restored_node_4548_Charleston = 0 
fc_4548_Charlotte: x_4548_12 + x_4548_13 + x_4548_14 + x_4548_15 - 2 restored_node_4548_Charlotte = 0 
fc_4548_Dallas: x_4548_16 + x_4548_17 + x_4548_18 + x_4548_19 - 2 restored_node_4548_Dallas = 0 
fc_4548_Denver: x_4548_3 + x_4548_20 + x_4548_21 + x_4548_5 + x_4548_22 - 2 restored_node_4548_Denver = 0 
fc_4548_Columbus: x_4548_7 + x_4548_23 + x_4548_24 - 2 restored_node_4548_Columbus = 0 
fc_4548_El_Paso: x_4548_21 + x_4548_25 + x_4548_18 + x_4548_26 - 2 restored_node_4548_El_Paso = 0 
fc_4548_Kansas_City: x_4548_22 + x_4548_6 + x_4548_16 + x_4548_27 - 2 restored_node_4548_Kansas_City = 0 
fc_4548_Las_Vegas: x_4548_28 + x_4548_29 + x_4548_30 - 2 restored_node_4548_Las_Vegas = 0 
fc_4548_Los_Angeles: x_4548_31 + x_4548_29 + x_4548_32 - 2 restored_node_4548_Los_Angeles = 0 
fc_4548_Louisville: x_4548_27 + x_4548_33 + x_4548_14 + x_4548_34 + x_4548_24 - 2 restored_node_4548_Louisville = 0 
fc_4548_New_Orleans: x_4548_37 - restored_4548 = 0 
fc_4548_New_York: x_4548_38 + x_4548_9 + x_4548_23 - 2 restored_node_4548_New_York = 0 
fc_4548_Birmingham: x_4548_19 + x_4548_11 + x_4548_15 + x_4548_34 - restored_dc_4548_Birmingham = 0 
fc_4548_Portland: x_4548_39 + x_4548_40 + x_4548_2 - 2 restored_node_4548_Portland = 0 
fc_4548_Salt_Lake_City: x_4548_41 + x_4548_30 + x_4548_42 + x_4548_0 + x_4548_20 - restored_dc_4548_Salt_Lake_City = 0 
fc_4548_San_Antonio: x_4548_17 + x_4548_26 - 2 restored_node_4548_San_Antonio = 0 
fc_4548_San_Francisco: x_4548_40 + x_4548_31 + x_4548_28 + x_4548_41 - 2 restored_node_4548_San_Francisco = 0 
fc_4548_Seattle: x_4548_39 + x_4548_1 - 2 restored_node_4548_Seattle = 0 
fc_4548_Tallahassee: x_4548_37 + x_4548_10 - 2 restored_node_4548_Tallahassee = 0 
fc_4548_Tucson: x_4548_32 + x_4548_42 + x_4548_25 - 2 restored_node_4548_Tucson = 0 
fc_4548_Washington_DC: x_4548_13 + x_4548_38 + x_4548_33 - 2 restored_node_4548_Washington_DC = 0 
fc_4423_Billings: x_4423_0 + x_4423_1 + x_4423_2 + x_4423_3 + x_4423_4 - 2 restored_node_4423_Billings = 0 
fc_4423_Bismarck: x_4423_5 + x_4423_4 + x_4423_6 + x_4423_7 + x_4423_8 - restored_dc_4423_Bismarck = 0 
fc_4423_Ithaca: x_4423_9 + x_4423_8 - 2 restored_node_4423_Ithaca = 0 
fc_4423_Charleston: x_4423_10 + x_4423_11 + x_4423_12 - 2 restored_node_4423_Charleston = 0 
fc_4423_Charlotte: x_4423_12 + x_4423_13 + x_4423_14 + x_4423_15 - 2 restored_node_4423_Charlotte = 0 
fc_4423_Dallas: x_4423_16 + x_4423_17 + x_4423_18 + x_4423_19 - 2 restored_node_4423_Dallas = 0 
fc_4423_Denver: x_4423_3 + x_4423_20 + x_4423_21 + x_4423_5 + x_4423_22 - 2 restored_node_4423_Denver = 0 
fc_4423_Columbus: x_4423_7 + x_4423_23 + x_4423_24 - 2 restored_node_4423_Columbus = 0 
fc_4423_El_Paso: x_4423_21 + x_4423_25 + x_4423_18 + x_4423_26 - 2 restored_node_4423_El_Paso = 0 
fc_4423_Kansas_City: x_4423_22 + x_4423_6 + x_4423_16 + x_4423_27 - 2 restored_node_4423_Kansas_City = 0 
fc_4423_Las_Vegas: x_4423_28 + x_4423_29 + x_4423_30 - 2 restored_node_4423_Las_Vegas = 0 
fc_4423_Los_Angeles: x_4423_31 + x_4423_29 + x_4423_32 - 2 restored_node_4423_Los_Angeles = 0 
fc_4423_Louisville: x_4423_27 + x_4423_33 + x_4423_14 + x_4423_34 + x_4423_24 - 2 restored_node_4423_Louisville = 0 
fc_4423_New_Orleans: x_4423_37 - restored_4423 = 0 
fc_4423_New_York: x_4423_38 + x_4423_9 + x_4423_23 - 2 restored_node_4423_New_York = 0 
fc_4423_Birmingham: x_4423_19 + x_4423_11 + x_4423_15 + x_4423_34 - restored_dc_4423_Birmingham = 0 
fc_4423_Portland: x_4423_39 + x_4423_40 + x_4423_2 - 2 restored_node_4423_Portland = 0 
fc_4423_Salt_Lake_City: x_4423_41 + x_4423_30 + x_4423_42 + x_4423_0 + x_4423_20 - restored_dc_4423_Salt_Lake_City = 0 
fc_4423_San_Antonio: x_4423_17 + x_4423_26 - 2 restored_node_4423_San_Antonio = 0 
fc_4423_San_Francisco: x_4423_40 + x_4423_31 + x_4423_28 + x_4423_41 - 2 restored_node_4423_San_Francisco = 0 
fc_4423_Seattle: x_4423_39 + x_4423_1 - 2 restored_node_4423_Seattle = 0 
fc_4423_Tallahassee: x_4423_37 + x_4423_10 - 2 restored_node_4423_Tallahassee = 0 
fc_4423_Tucson: x_4423_32 + x_4423_42 + x_4423_25 - 2 restored_node_4423_Tucson = 0 
fc_4423_Washington_DC: x_4423_13 + x_4423_38 + x_4423_33 - 2 restored_node_4423_Washington_DC = 0 
fc_4331_Billings: x_4331_0 + x_4331_1 + x_4331_2 + x_4331_3 + x_4331_4 - 2 restored_node_4331_Billings = 0 
fc_4331_Bismarck: x_4331_5 + x_4331_4 + x_4331_6 + x_4331_7 + x_4331_8 - restored_dc_4331_Bismarck = 0 
fc_4331_Ithaca: x_4331_9 + x_4331_8 - 2 restored_node_4331_Ithaca = 0 
fc_4331_Charleston: x_4331_10 + x_4331_11 + x_4331_12 - 2 restored_node_4331_Charleston = 0 
fc_4331_Charlotte: x_4331_12 + x_4331_13 + x_4331_14 + x_4331_15 - 2 restored_node_4331_Charlotte = 0 
fc_4331_Dallas: x_4331_16 + x_4331_17 + x_4331_18 + x_4331_19 - 2 restored_node_4331_Dallas = 0 
fc_4331_Denver: x_4331_3 + x_4331_20 + x_4331_21 + x_4331_5 + x_4331_22 - 2 restored_node_4331_Denver = 0 
fc_4331_Columbus: x_4331_7 + x_4331_23 + x_4331_24 - 2 restored_node_4331_Columbus = 0 
fc_4331_El_Paso: x_4331_21 + x_4331_25 + x_4331_18 + x_4331_26 - 2 restored_node_4331_El_Paso = 0 
fc_4331_Kansas_City: x_4331_22 + x_4331_6 + x_4331_16 + x_4331_27 - 2 restored_node_4331_Kansas_City = 0 
fc_4331_Las_Vegas: x_4331_28 + x_4331_29 + x_4331_30 - 2 restored_node_4331_Las_Vegas = 0 
fc_4331_Los_Angeles: x_4331_31 + x_4331_29 + x_4331_32 - 2 restored_node_4331_Los_Angeles = 0 
fc_4331_Louisville: x_4331_27 + x_4331_33 + x_4331_14 + x_4331_34 + x_4331_24 - 2 restored_node_4331_Louisville = 0 
fc_4331_New_Orleans: x_4331_37 - restored_4331 = 0 
fc_4331_New_York: x_4331_38 + x_4331_9 + x_4331_23 - 2 restored_node_4331_New_York = 0 
fc_4331_Birmingham: x_4331_19 + x_4331_11 + x_4331_15 + x_4331_34 - restored_dc_4331_Birmingham = 0 
fc_4331_Portland: x_4331_39 + x_4331_40 + x_4331_2 - 2 restored_node_4331_Portland = 0 
fc_4331_Salt_Lake_City: x_4331_41 + x_4331_30 + x_4331_42 + x_4331_0 + x_4331_20 - restored_dc_4331_Salt_Lake_City = 0 
fc_4331_San_Antonio: x_4331_17 + x_4331_26 - 2 restored_node_4331_San_Antonio = 0 
fc_4331_San_Francisco: x_4331_40 + x_4331_31 + x_4331_28 + x_4331_41 - 2 restored_node_4331_San_Francisco = 0 
fc_4331_Seattle: x_4331_39 + x_4331_1 - 2 restored_node_4331_Seattle = 0 
fc_4331_Tallahassee: x_4331_37 + x_4331_10 - 2 restored_node_4331_Tallahassee = 0 
fc_4331_Tucson: x_4331_32 + x_4331_42 + x_4331_25 - 2 restored_node_4331_Tucson = 0 
fc_4331_Washington_DC: x_4331_13 + x_4331_38 + x_4331_33 - 2 restored_node_4331_Washington_DC = 0 
fc_4744_Billings: x_4744_0 + x_4744_1 + x_4744_2 + x_4744_3 + x_4744_4 - 2 restored_node_4744_Billings = 0 
fc_4744_Bismarck: x_4744_5 + x_4744_4 + x_4744_6 + x_4744_7 + x_4744_8 - restored_dc_4744_Bismarck = 0 
fc_4744_Ithaca: x_4744_9 + x_4744_8 - 2 restored_node_4744_Ithaca = 0 
fc_4744_Charleston: x_4744_10 + x_4744_11 + x_4744_12 - 2 restored_node_4744_Charleston = 0 
fc_4744_Charlotte: x_4744_12 + x_4744_13 + x_4744_14 + x_4744_15 - 2 restored_node_4744_Charlotte = 0 
fc_4744_Dallas: x_4744_16 + x_4744_17 + x_4744_18 + x_4744_19 - 2 restored_node_4744_Dallas = 0 
fc_4744_Denver: x_4744_3 + x_4744_20 + x_4744_21 + x_4744_5 + x_4744_22 - 2 restored_node_4744_Denver = 0 
fc_4744_Columbus: x_4744_7 + x_4744_23 + x_4744_24 - 2 restored_node_4744_Columbus = 0 
fc_4744_El_Paso: x_4744_21 + x_4744_25 + x_4744_18 + x_4744_26 - 2 restored_node_4744_El_Paso = 0 
fc_4744_Kansas_City: x_4744_22 + x_4744_6 + x_4744_16 + x_4744_27 - 2 restored_node_4744_Kansas_City = 0 
fc_4744_Las_Vegas: x_4744_28 + x_4744_29 + x_4744_30 - 2 restored_node_4744_Las_Vegas = 0 
fc_4744_Los_Angeles: x_4744_31 + x_4744_29 + x_4744_32 - 2 restored_node_4744_Los_Angeles = 0 
fc_4744_Louisville: x_4744_27 + x_4744_33 + x_4744_14 + x_4744_34 + x_4744_24 - 2 restored_node_4744_Louisville = 0 
fc_4744_New_Orleans: x_4744_37 - 2 restored_node_4744_New_Orleans = 0 
fc_4744_New_York: x_4744_38 + x_4744_9 + x_4744_23 - 2 restored_node_4744_New_York = 0 
fc_4744_Birmingham: x_4744_19 + x_4744_11 + x_4744_15 + x_4744_34 - restored_dc_4744_Birmingham = 0 
fc_4744_Portland: x_4744_39 + x_4744_40 + x_4744_2 - 2 restored_node_4744_Portland = 0 
fc_4744_Salt_Lake_City: x_4744_41 + x_4744_30 + x_4744_42 + x_4744_0 + x_4744_20 - restored_dc_4744_Salt_Lake_City = 0 
fc_4744_San_Antonio: x_4744_17 + x_4744_26 - restored_4744 = 0 
fc_4744_San_Francisco: x_4744_40 + x_4744_31 + x_4744_28 + x_4744_41 - 2 restored_node_4744_San_Francisco = 0 
fc_4744_Seattle: x_4744_39 + x_4744_1 - 2 restored_node_4744_Seattle = 0 
fc_4744_Tallahassee: x_4744_37 + x_4744_10 - 2 restored_node_4744_Tallahassee = 0 
fc_4744_Tucson: x_4744_32 + x_4744_42 + x_4744_25 - 2 restored_node_4744_Tucson = 0 
fc_4744_Washington_DC: x_4744_13 + x_4744_38 + x_4744_33 - 2 restored_node_4744_Washington_DC = 0 
fc_4210_Billings: x_4210_0 + x_4210_1 + x_4210_2 + x_4210_3 + x_4210_4 - 2 restored_node_4210_Billings = 0 
fc_4210_Bismarck: x_4210_5 + x_4210_4 + x_4210_6 + x_4210_7 + x_4210_8 - restored_dc_4210_Bismarck = 0 
fc_4210_Ithaca: x_4210_9 + x_4210_8 - 2 restored_node_4210_Ithaca = 0 
fc_4210_Charleston: x_4210_10 + x_4210_11 + x_4210_12 - 2 restored_node_4210_Charleston = 0 
fc_4210_Charlotte: x_4210_12 + x_4210_13 + x_4210_14 + x_4210_15 - 2 restored_node_4210_Charlotte = 0 
fc_4210_Dallas: x_4210_16 + x_4210_17 + x_4210_18 + x_4210_19 - 2 restored_node_4210_Dallas = 0 
fc_4210_Denver: x_4210_3 + x_4210_20 + x_4210_21 + x_4210_5 + x_4210_22 - 2 restored_node_4210_Denver = 0 
fc_4210_Columbus: x_4210_7 + x_4210_23 + x_4210_24 - 2 restored_node_4210_Columbus = 0 
fc_4210_El_Paso: x_4210_21 + x_4210_25 + x_4210_18 + x_4210_26 - 2 restored_node_4210_El_Paso = 0 
fc_4210_Kansas_City: x_4210_22 + x_4210_6 + x_4210_16 + x_4210_27 - 2 restored_node_4210_Kansas_City = 0 
fc_4210_Las_Vegas: x_4210_28 + x_4210_29 + x_4210_30 - 2 restored_node_4210_Las_Vegas = 0 
fc_4210_Los_Angeles: x_4210_31 + x_4210_29 + x_4210_32 - 2 restored_node_4210_Los_Angeles = 0 
fc_4210_Louisville: x_4210_27 + x_4210_33 + x_4210_14 + x_4210_34 + x_4210_24 - 2 restored_node_4210_Louisville = 0 
fc_4210_New_Orleans: x_4210_37 - 2 restored_node_4210_New_Orleans = 0 
fc_4210_New_York: x_4210_38 + x_4210_9 + x_4210_23 - 2 restored_node_4210_New_York = 0 
fc_4210_Birmingham: x_4210_19 + x_4210_11 + x_4210_15 + x_4210_34 - restored_dc_4210_Birmingham = 0 
fc_4210_Portland: x_4210_39 + x_4210_40 + x_4210_2 - 2 restored_node_4210_Portland = 0 
fc_4210_Salt_Lake_City: x_4210_41 + x_4210_30 + x_4210_42 + x_4210_0 + x_4210_20 - restored_dc_4210_Salt_Lake_City = 0 
fc_4210_San_Antonio: x_4210_17 + x_4210_26 - restored_4210 = 0 
fc_4210_San_Francisco: x_4210_40 + x_4210_31 + x_4210_28 + x_4210_41 - 2 restored_node_4210_San_Francisco = 0 
fc_4210_Seattle: x_4210_39 + x_4210_1 - 2 restored_node_4210_Seattle = 0 
fc_4210_Tallahassee: x_4210_37 + x_4210_10 - 2 restored_node_4210_Tallahassee = 0 
fc_4210_Tucson: x_4210_32 + x_4210_42 + x_4210_25 - 2 restored_node_4210_Tucson = 0 
fc_4210_Washington_DC: x_4210_13 + x_4210_38 + x_4210_33 - 2 restored_node_4210_Washington_DC = 0 
fc_505_Billings: x_505_0 + x_505_1 + x_505_2 + x_505_3 + x_505_4 - 2 restored_node_505_Billings = 0 
fc_505_Bismarck: x_505_5 + x_505_4 + x_505_6 + x_505_7 + x_505_8 - restored_dc_505_Bismarck = 0 
fc_505_Ithaca: x_505_9 + x_505_8 - 2 restored_node_505_Ithaca = 0 
fc_505_Charleston: x_505_10 + x_505_11 + x_505_12 - 2 restored_node_505_Charleston = 0 
fc_505_Charlotte: x_505_12 + x_505_13 + x_505_14 + x_505_15 - 2 restored_node_505_Charlotte = 0 
fc_505_Dallas: x_505_16 + x_505_17 + x_505_18 + x_505_19 - 2 restored_node_505_Dallas = 0 
fc_505_Denver: x_505_3 + x_505_20 + x_505_21 + x_505_5 + x_505_22 - 2 restored_node_505_Denver = 0 
fc_505_Columbus: x_505_7 + x_505_23 + x_505_24 - 2 restored_node_505_Columbus = 0 
fc_505_El_Paso: x_505_21 + x_505_25 + x_505_18 + x_505_26 - 2 restored_node_505_El_Paso = 0 
fc_505_Kansas_City: x_505_22 + x_505_6 + x_505_16 + x_505_27 - 2 restored_node_505_Kansas_City = 0 
fc_505_Las_Vegas: x_505_28 + x_505_29 + x_505_30 - 2 restored_node_505_Las_Vegas = 0 
fc_505_Los_Angeles: x_505_31 + x_505_29 + x_505_32 - 2 restored_node_505_Los_Angeles = 0 
fc_505_Louisville: x_505_27 + x_505_33 + x_505_14 + x_505_34 + x_505_24 - 2 restored_node_505_Louisville = 0 
fc_505_New_Orleans: x_505_37 - 2 restored_node_505_New_Orleans = 0 
fc_505_New_York: x_505_38 + x_505_9 + x_505_23 - 2 restored_node_505_New_York = 0 
fc_505_Birmingham: x_505_19 + x_505_11 + x_505_15 + x_505_34 - restored_dc_505_Birmingham = 0 
fc_505_Portland: x_505_39 + x_505_40 + x_505_2 - 2 restored_node_505_Portland = 0 
fc_505_Salt_Lake_City: x_505_41 + x_505_30 + x_505_42 + x_505_0 + x_505_20 - restored_dc_505_Salt_Lake_City = 0 
fc_505_San_Antonio: x_505_17 + x_505_26 - 2 restored_node_505_San_Antonio = 0 
fc_505_San_Francisco: x_505_40 + x_505_31 + x_505_28 + x_505_41 - 2 restored_node_505_San_Francisco = 0 
fc_505_Seattle: x_505_39 + x_505_1 - 2 restored_node_505_Seattle = 0 
fc_505_Tallahassee: x_505_37 + x_505_10 - restored_505 = 0 
fc_505_Tucson: x_505_32 + x_505_42 + x_505_25 - 2 restored_node_505_Tucson = 0 
fc_505_Washington_DC: x_505_13 + x_505_38 + x_505_33 - 2 restored_node_505_Washington_DC = 0 
fc_3161_Billings: x_3161_0 + x_3161_1 + x_3161_2 + x_3161_3 + x_3161_4 - 2 restored_node_3161_Billings = 0 
fc_3161_Bismarck: x_3161_5 + x_3161_4 + x_3161_6 + x_3161_7 + x_3161_8 - restored_dc_3161_Bismarck = 0 
fc_3161_Ithaca: x_3161_9 + x_3161_8 - 2 restored_node_3161_Ithaca = 0 
fc_3161_Charleston: x_3161_10 + x_3161_11 + x_3161_12 - 2 restored_node_3161_Charleston = 0 
fc_3161_Charlotte: x_3161_12 + x_3161_13 + x_3161_14 + x_3161_15 - 2 restored_node_3161_Charlotte = 0 
fc_3161_Dallas: x_3161_16 + x_3161_17 + x_3161_18 + x_3161_19 - 2 restored_node_3161_Dallas = 0 
fc_3161_Denver: x_3161_3 + x_3161_20 + x_3161_21 + x_3161_5 + x_3161_22 - 2 restored_node_3161_Denver = 0 
fc_3161_Columbus: x_3161_7 + x_3161_23 + x_3161_24 - 2 restored_node_3161_Columbus = 0 
fc_3161_El_Paso: x_3161_21 + x_3161_25 + x_3161_18 + x_3161_26 - 2 restored_node_3161_El_Paso = 0 
fc_3161_Kansas_City: x_3161_22 + x_3161_6 + x_3161_16 + x_3161_27 - 2 restored_node_3161_Kansas_City = 0 
fc_3161_Las_Vegas: x_3161_28 + x_3161_29 + x_3161_30 - 2 restored_node_3161_Las_Vegas = 0 
fc_3161_Los_Angeles: x_3161_31 + x_3161_29 + x_3161_32 - 2 restored_node_3161_Los_Angeles = 0 
fc_3161_Louisville: x_3161_27 + x_3161_33 + x_3161_14 + x_3161_34 + x_3161_24 - 2 restored_node_3161_Louisville = 0 
fc_3161_New_Orleans: x_3161_37 - 2 restored_node_3161_New_Orleans = 0 
fc_3161_New_York: x_3161_38 + x_3161_9 + x_3161_23 - 2 restored_node_3161_New_York = 0 
fc_3161_Birmingham: x_3161_19 + x_3161_11 + x_3161_15 + x_3161_34 - restored_dc_3161_Birmingham = 0 
fc_3161_Portland: x_3161_39 + x_3161_40 + x_3161_2 - 2 restored_node_3161_Portland = 0 
fc_3161_Salt_Lake_City: x_3161_41 + x_3161_30 + x_3161_42 + x_3161_0 + x_3161_20 - restored_dc_3161_Salt_Lake_City = 0 
fc_3161_San_Antonio: x_3161_17 + x_3161_26 - 2 restored_node_3161_San_Antonio = 0 
fc_3161_San_Francisco: x_3161_40 + x_3161_31 + x_3161_28 + x_3161_41 - 2 restored_node_3161_San_Francisco = 0 
fc_3161_Seattle: x_3161_39 + x_3161_1 - 2 restored_node_3161_Seattle = 0 
fc_3161_Tallahassee: x_3161_37 + x_3161_10 - restored_3161 = 0 
fc_3161_Tucson: x_3161_32 + x_3161_42 + x_3161_25 - 2 restored_node_3161_Tucson = 0 
fc_3161_Washington_DC: x_3161_13 + x_3161_38 + x_3161_33 - 2 restored_node_3161_Washington_DC = 0 
fc_4359_Billings: x_4359_0 + x_4359_1 + x_4359_2 + x_4359_3 + x_4359_4 - 2 restored_node_4359_Billings = 0 
fc_4359_Bismarck: x_4359_5 + x_4359_4 + x_4359_6 + x_4359_7 + x_4359_8 - restored_dc_4359_Bismarck = 0 
fc_4359_Ithaca: x_4359_9 + x_4359_8 - 2 restored_node_4359_Ithaca = 0 
fc_4359_Charleston: x_4359_10 + x_4359_11 + x_4359_12 - 2 restored_node_4359_Charleston = 0 
fc_4359_Charlotte: x_4359_12 + x_4359_13 + x_4359_14 + x_4359_15 - 2 restored_node_4359_Charlotte = 0 
fc_4359_Dallas: x_4359_16 + x_4359_17 + x_4359_18 + x_4359_19 - 2 restored_node_4359_Dallas = 0 
fc_4359_Denver: x_4359_3 + x_4359_20 + x_4359_21 + x_4359_5 + x_4359_22 - 2 restored_node_4359_Denver = 0 
fc_4359_Columbus: x_4359_7 + x_4359_23 + x_4359_24 - 2 restored_node_4359_Columbus = 0 
fc_4359_El_Paso: x_4359_21 + x_4359_25 + x_4359_18 + x_4359_26 - 2 restored_node_4359_El_Paso = 0 
fc_4359_Kansas_City: x_4359_22 + x_4359_6 + x_4359_16 + x_4359_27 - 2 restored_node_4359_Kansas_City = 0 
fc_4359_Las_Vegas: x_4359_28 + x_4359_29 + x_4359_30 - 2 restored_node_4359_Las_Vegas = 0 
fc_4359_Los_Angeles: x_4359_31 + x_4359_29 + x_4359_32 - 2 restored_node_4359_Los_Angeles = 0 
fc_4359_Louisville: x_4359_27 + x_4359_33 + x_4359_14 + x_4359_34 + x_4359_24 - 2 restored_node_4359_Louisville = 0 
fc_4359_New_Orleans: x_4359_37 - 2 restored_node_4359_New_Orleans = 0 
fc_4359_New_York: x_4359_38 + x_4359_9 + x_4359_23 - 2 restored_node_4359_New_York = 0 
fc_4359_Birmingham: x_4359_19 + x_4359_11 + x_4359_15 + x_4359_34 - restored_dc_4359_Birmingham = 0 
fc_4359_Portland: x_4359_39 + x_4359_40 + x_4359_2 - 2 restored_node_4359_Portland = 0 
fc_4359_Salt_Lake_City: x_4359_41 + x_4359_30 + x_4359_42 + x_4359_0 + x_4359_20 - restored_dc_4359_Salt_Lake_City = 0 
fc_4359_San_Antonio: x_4359_17 + x_4359_26 - 2 restored_node_4359_San_Antonio = 0 
fc_4359_San_Francisco: x_4359_40 + x_4359_31 + x_4359_28 + x_4359_41 - 2 restored_node_4359_San_Francisco = 0 
fc_4359_Seattle: x_4359_39 + x_4359_1 - 2 restored_node_4359_Seattle = 0 
fc_4359_Tallahassee: x_4359_37 + x_4359_10 - restored_4359 = 0 
fc_4359_Tucson: x_4359_32 + x_4359_42 + x_4359_25 - 2 restored_node_4359_Tucson = 0 
fc_4359_Washington_DC: x_4359_13 + x_4359_38 + x_4359_33 - 2 restored_node_4359_Washington_DC = 0 
fc_4488_Billings: x_4488_0 + x_4488_1 + x_4488_2 + x_4488_3 + x_4488_4 - 2 restored_node_4488_Billings = 0 
fc_4488_Bismarck: x_4488_5 + x_4488_4 + x_4488_6 + x_4488_7 + x_4488_8 - restored_dc_4488_Bismarck = 0 
fc_4488_Ithaca: x_4488_9 + x_4488_8 - 2 restored_node_4488_Ithaca = 0 
fc_4488_Charleston: x_4488_10 + x_4488_11 + x_4488_12 - 2 restored_node_4488_Charleston = 0 
fc_4488_Charlotte: x_4488_12 + x_4488_13 + x_4488_14 + x_4488_15 - 2 restored_node_4488_Charlotte = 0 
fc_4488_Dallas: x_4488_16 + x_4488_17 + x_4488_18 + x_4488_19 - 2 restored_node_4488_Dallas = 0 
fc_4488_Denver: x_4488_3 + x_4488_20 + x_4488_21 + x_4488_5 + x_4488_22 - 2 restored_node_4488_Denver = 0 
fc_4488_Columbus: x_4488_7 + x_4488_23 + x_4488_24 - 2 restored_node_4488_Columbus = 0 
fc_4488_El_Paso: x_4488_21 + x_4488_25 + x_4488_18 + x_4488_26 - 2 restored_node_4488_El_Paso = 0 
fc_4488_Kansas_City: x_4488_22 + x_4488_6 + x_4488_16 + x_4488_27 - 2 restored_node_4488_Kansas_City = 0 
fc_4488_Las_Vegas: x_4488_28 + x_4488_29 + x_4488_30 - 2 restored_node_4488_Las_Vegas = 0 
fc_4488_Los_Angeles: x_4488_31 + x_4488_29 + x_4488_32 - 2 restored_node_4488_Los_Angeles = 0 
fc_4488_Louisville: x_4488_27 + x_4488_33 + x_4488_14 + x_4488_34 + x_4488_24 - 2 restored_node_4488_Louisville = 0 
fc_4488_New_Orleans: x_4488_37 - 2 restored_node_4488_New_Orleans = 0 
fc_4488_New_York: x_4488_38 + x_4488_9 + x_4488_23 - 2 restored_node_4488_New_York = 0 
fc_4488_Birmingham: x_4488_19 + x_4488_11 + x_4488_15 + x_4488_34 - restored_dc_4488_Birmingham = 0 
fc_4488_Portland: x_4488_39 + x_4488_40 + x_4488_2 - 2 restored_node_4488_Portland = 0 
fc_4488_Salt_Lake_City: x_4488_41 + x_4488_30 + x_4488_42 + x_4488_0 + x_4488_20 - restored_dc_4488_Salt_Lake_City = 0 
fc_4488_San_Antonio: x_4488_17 + x_4488_26 - restored_4488 = 0 
fc_4488_San_Francisco: x_4488_40 + x_4488_31 + x_4488_28 + x_4488_41 - 2 restored_node_4488_San_Francisco = 0 
fc_4488_Seattle: x_4488_39 + x_4488_1 - 2 restored_node_4488_Seattle = 0 
fc_4488_Tallahassee: x_4488_37 + x_4488_10 - 2 restored_node_4488_Tallahassee = 0 
fc_4488_Tucson: x_4488_32 + x_4488_42 + x_4488_25 - 2 restored_node_4488_Tucson = 0 
fc_4488_Washington_DC: x_4488_13 + x_4488_38 + x_4488_33 - 2 restored_node_4488_Washington_DC = 0 
fc_4463_Billings: x_4463_0 + x_4463_1 + x_4463_2 + x_4463_3 + x_4463_4 - 2 restored_node_4463_Billings = 0 
fc_4463_Bismarck: x_4463_5 + x_4463_4 + x_4463_6 + x_4463_7 + x_4463_8 - restored_dc_4463_Bismarck = 0 
fc_4463_Ithaca: x_4463_9 + x_4463_8 - 2 restored_node_4463_Ithaca = 0 
fc_4463_Charleston: x_4463_10 + x_4463_11 + x_4463_12 - 2 restored_node_4463_Charleston = 0 
fc_4463_Charlotte: x_4463_12 + x_4463_13 + x_4463_14 + x_4463_15 - 2 restored_node_4463_Charlotte = 0 
fc_4463_Dallas: x_4463_16 + x_4463_17 + x_4463_18 + x_4463_19 - 2 restored_node_4463_Dallas = 0 
fc_4463_Denver: x_4463_3 + x_4463_20 + x_4463_21 + x_4463_5 + x_4463_22 - 2 restored_node_4463_Denver = 0 
fc_4463_Columbus: x_4463_7 + x_4463_23 + x_4463_24 - 2 restored_node_4463_Columbus = 0 
fc_4463_El_Paso: x_4463_21 + x_4463_25 + x_4463_18 + x_4463_26 - 2 restored_node_4463_El_Paso = 0 
fc_4463_Kansas_City: x_4463_22 + x_4463_6 + x_4463_16 + x_4463_27 - 2 restored_node_4463_Kansas_City = 0 
fc_4463_Las_Vegas: x_4463_28 + x_4463_29 + x_4463_30 - 2 restored_node_4463_Las_Vegas = 0 
fc_4463_Los_Angeles: x_4463_31 + x_4463_29 + x_4463_32 - 2 restored_node_4463_Los_Angeles = 0 
fc_4463_Louisville: x_4463_27 + x_4463_33 + x_4463_14 + x_4463_34 + x_4463_24 - 2 restored_node_4463_Louisville = 0 
fc_4463_New_Orleans: x_4463_37 - 2 restored_node_4463_New_Orleans = 0 
fc_4463_New_York: x_4463_38 + x_4463_9 + x_4463_23 - 2 restored_node_4463_New_York = 0 
fc_4463_Birmingham: x_4463_19 + x_4463_11 + x_4463_15 + x_4463_34 - restored_dc_4463_Birmingham = 0 
fc_4463_Portland: x_4463_39 + x_4463_40 + x_4463_2 - 2 restored_node_4463_Portland = 0 
fc_4463_Salt_Lake_City: x_4463_41 + x_4463_30 + x_4463_42 + x_4463_0 + x_4463_20 - restored_dc_4463_Salt_Lake_City = 0 
fc_4463_San_Antonio: x_4463_17 + x_4463_26 - restored_4463 = 0 
fc_4463_San_Francisco: x_4463_40 + x_4463_31 + x_4463_28 + x_4463_41 - 2 restored_node_4463_San_Francisco = 0 
fc_4463_Seattle: x_4463_39 + x_4463_1 - 2 restored_node_4463_Seattle = 0 
fc_4463_Tallahassee: x_4463_37 + x_4463_10 - 2 restored_node_4463_Tallahassee = 0 
fc_4463_Tucson: x_4463_32 + x_4463_42 + x_4463_25 - 2 restored_node_4463_Tucson = 0 
fc_4463_Washington_DC: x_4463_13 + x_4463_38 + x_4463_33 - 2 restored_node_4463_Washington_DC = 0 
fc_4651_Billings: x_4651_0 + x_4651_1 + x_4651_2 + x_4651_3 + x_4651_4 - 2 restored_node_4651_Billings = 0 
fc_4651_Bismarck: x_4651_5 + x_4651_4 + x_4651_6 + x_4651_7 + x_4651_8 - restored_dc_4651_Bismarck = 0 
fc_4651_Ithaca: x_4651_9 + x_4651_8 - 2 restored_node_4651_Ithaca = 0 
fc_4651_Charleston: x_4651_10 + x_4651_11 + x_4651_12 - 2 restored_node_4651_Charleston = 0 
fc_4651_Charlotte: x_4651_12 + x_4651_13 + x_4651_14 + x_4651_15 - 2 restored_node_4651_Charlotte = 0 
fc_4651_Dallas: x_4651_16 + x_4651_17 + x_4651_18 + x_4651_19 - 2 restored_node_4651_Dallas = 0 
fc_4651_Denver: x_4651_3 + x_4651_20 + x_4651_21 + x_4651_5 + x_4651_22 - 2 restored_node_4651_Denver = 0 
fc_4651_Columbus: x_4651_7 + x_4651_23 + x_4651_24 - 2 restored_node_4651_Columbus = 0 
fc_4651_El_Paso: x_4651_21 + x_4651_25 + x_4651_18 + x_4651_26 - 2 restored_node_4651_El_Paso = 0 
fc_4651_Kansas_City: x_4651_22 + x_4651_6 + x_4651_16 + x_4651_27 - 2 restored_node_4651_Kansas_City = 0 
fc_4651_Las_Vegas: x_4651_28 + x_4651_29 + x_4651_30 - 2 restored_node_4651_Las_Vegas = 0 
fc_4651_Los_Angeles: x_4651_31 + x_4651_29 + x_4651_32 - 2 restored_node_4651_Los_Angeles = 0 
fc_4651_Louisville: x_4651_27 + x_4651_33 + x_4651_14 + x_4651_34 + x_4651_24 - 2 restored_node_4651_Louisville = 0 
fc_4651_New_Orleans: x_4651_37 - restored_4651 = 0 
fc_4651_New_York: x_4651_38 + x_4651_9 + x_4651_23 - 2 restored_node_4651_New_York = 0 
fc_4651_Birmingham: x_4651_19 + x_4651_11 + x_4651_15 + x_4651_34 - restored_dc_4651_Birmingham = 0 
fc_4651_Portland: x_4651_39 + x_4651_40 + x_4651_2 - 2 restored_node_4651_Portland = 0 
fc_4651_Salt_Lake_City: x_4651_41 + x_4651_30 + x_4651_42 + x_4651_0 + x_4651_20 - restored_dc_4651_Salt_Lake_City = 0 
fc_4651_San_Antonio: x_4651_17 + x_4651_26 - 2 restored_node_4651_San_Antonio = 0 
fc_4651_San_Francisco: x_4651_40 + x_4651_31 + x_4651_28 + x_4651_41 - 2 restored_node_4651_San_Francisco = 0 
fc_4651_Seattle: x_4651_39 + x_4651_1 - 2 restored_node_4651_Seattle = 0 
fc_4651_Tallahassee: x_4651_37 + x_4651_10 - 2 restored_node_4651_Tallahassee = 0 
fc_4651_Tucson: x_4651_32 + x_4651_42 + x_4651_25 - 2 restored_node_4651_Tucson = 0 
fc_4651_Washington_DC: x_4651_13 + x_4651_38 + x_4651_33 - 2 restored_node_4651_Washington_DC = 0 
fc_4771_Billings: x_4771_0 + x_4771_1 + x_4771_2 + x_4771_3 + x_4771_4 - 2 restored_node_4771_Billings = 0 
fc_4771_Bismarck: x_4771_5 + x_4771_4 + x_4771_6 + x_4771_7 + x_4771_8 - restored_dc_4771_Bismarck = 0 
fc_4771_Ithaca: x_4771_9 + x_4771_8 - 2 restored_node_4771_Ithaca = 0 
fc_4771_Charleston: x_4771_10 + x_4771_11 + x_4771_12 - 2 restored_node_4771_Charleston = 0 
fc_4771_Charlotte: x_4771_12 + x_4771_13 + x_4771_14 + x_4771_15 - 2 restored_node_4771_Charlotte = 0 
fc_4771_Dallas: x_4771_16 + x_4771_17 + x_4771_18 + x_4771_19 - 2 restored_node_4771_Dallas = 0 
fc_4771_Denver: x_4771_3 + x_4771_20 + x_4771_21 + x_4771_5 + x_4771_22 - 2 restored_node_4771_Denver = 0 
fc_4771_Columbus: x_4771_7 + x_4771_23 + x_4771_24 - 2 restored_node_4771_Columbus = 0 
fc_4771_El_Paso: x_4771_21 + x_4771_25 + x_4771_18 + x_4771_26 - 2 restored_node_4771_El_Paso = 0 
fc_4771_Kansas_City: x_4771_22 + x_4771_6 + x_4771_16 + x_4771_27 - 2 restored_node_4771_Kansas_City = 0 
fc_4771_Las_Vegas: x_4771_28 + x_4771_29 + x_4771_30 - 2 restored_node_4771_Las_Vegas = 0 
fc_4771_Los_Angeles: x_4771_31 + x_4771_29 + x_4771_32 - 2 restored_node_4771_Los_Angeles = 0 
fc_4771_Louisville: x_4771_27 + x_4771_33 + x_4771_14 + x_4771_34 + x_4771_24 - 2 restored_node_4771_Louisville = 0 
fc_4771_New_Orleans: x_4771_37 - 2 restored_node_4771_New_Orleans = 0 
fc_4771_New_York: x_4771_38 + x_4771_9 + x_4771_23 - 2 restored_node_4771_New_York = 0 
fc_4771_Birmingham: x_4771_19 + x_4771_11 + x_4771_15 + x_4771_34 - restored_dc_4771_Birmingham = 0 
fc_4771_Portland: x_4771_39 + x_4771_40 + x_4771_2 - 2 restored_node_4771_Portland = 0 
fc_4771_Salt_Lake_City: x_4771_41 + x_4771_30 + x_4771_42 + x_4771_0 + x_4771_20 - restored_dc_4771_Salt_Lake_City = 0 
fc_4771_San_Antonio: x_4771_17 + x_4771_26 - 2 restored_node_4771_San_Antonio = 0 
fc_4771_San_Francisco: x_4771_40 + x_4771_31 + x_4771_28 + x_4771_41 - 2 restored_node_4771_San_Francisco = 0 
fc_4771_Seattle: x_4771_39 + x_4771_1 - 2 restored_node_4771_Seattle = 0 
fc_4771_Tallahassee: x_4771_37 + x_4771_10 - restored_4771 = 0 
fc_4771_Tucson: x_4771_32 + x_4771_42 + x_4771_25 - 2 restored_node_4771_Tucson = 0 
fc_4771_Washington_DC: x_4771_13 + x_4771_38 + x_4771_33 - 2 restored_node_4771_Washington_DC = 0 
fc_4847_Billings: x_4847_0 + x_4847_1 + x_4847_2 + x_4847_3 + x_4847_4 - 2 restored_node_4847_Billings = 0 
fc_4847_Bismarck: x_4847_5 + x_4847_4 + x_4847_6 + x_4847_7 + x_4847_8 - restored_dc_4847_Bismarck = 0 
fc_4847_Ithaca: x_4847_9 + x_4847_8 - 2 restored_node_4847_Ithaca = 0 
fc_4847_Charleston: x_4847_10 + x_4847_11 + x_4847_12 - 2 restored_node_4847_Charleston = 0 
fc_4847_Charlotte: x_4847_12 + x_4847_13 + x_4847_14 + x_4847_15 - 2 restored_node_4847_Charlotte = 0 
fc_4847_Dallas: x_4847_16 + x_4847_17 + x_4847_18 + x_4847_19 - 2 restored_node_4847_Dallas = 0 
fc_4847_Denver: x_4847_3 + x_4847_20 + x_4847_21 + x_4847_5 + x_4847_22 - 2 restored_node_4847_Denver = 0 
fc_4847_Columbus: x_4847_7 + x_4847_23 + x_4847_24 - 2 restored_node_4847_Columbus = 0 
fc_4847_El_Paso: x_4847_21 + x_4847_25 + x_4847_18 + x_4847_26 - 2 restored_node_4847_El_Paso = 0 
fc_4847_Kansas_City: x_4847_22 + x_4847_6 + x_4847_16 + x_4847_27 - 2 restored_node_4847_Kansas_City = 0 
fc_4847_Las_Vegas: x_4847_28 + x_4847_29 + x_4847_30 - 2 restored_node_4847_Las_Vegas = 0 
fc_4847_Los_Angeles: x_4847_31 + x_4847_29 + x_4847_32 - 2 restored_node_4847_Los_Angeles = 0 
fc_4847_Louisville: x_4847_27 + x_4847_33 + x_4847_14 + x_4847_34 + x_4847_24 - 2 restored_node_4847_Louisville = 0 
fc_4847_New_Orleans: x_4847_37 - restored_4847 = 0 
fc_4847_New_York: x_4847_38 + x_4847_9 + x_4847_23 - 2 restored_node_4847_New_York = 0 
fc_4847_Birmingham: x_4847_19 + x_4847_11 + x_4847_15 + x_4847_34 - restored_dc_4847_Birmingham = 0 
fc_4847_Portland: x_4847_39 + x_4847_40 + x_4847_2 - 2 restored_node_4847_Portland = 0 
fc_4847_Salt_Lake_City: x_4847_41 + x_4847_30 + x_4847_42 + x_4847_0 + x_4847_20 - restored_dc_4847_Salt_Lake_City = 0 
fc_4847_San_Antonio: x_4847_17 + x_4847_26 - 2 restored_node_4847_San_Antonio = 0 
fc_4847_San_Francisco: x_4847_40 + x_4847_31 + x_4847_28 + x_4847_41 - 2 restored_node_4847_San_Francisco = 0 
fc_4847_Seattle: x_4847_39 + x_4847_1 - 2 restored_node_4847_Seattle = 0 
fc_4847_Tallahassee: x_4847_37 + x_4847_10 - 2 restored_node_4847_Tallahassee = 0 
fc_4847_Tucson: x_4847_32 + x_4847_42 + x_4847_25 - 2 restored_node_4847_Tucson = 0 
fc_4847_Washington_DC: x_4847_13 + x_4847_38 + x_4847_33 - 2 restored_node_4847_Washington_DC = 0 
fc_4734_Billings: x_4734_0 + x_4734_1 + x_4734_2 + x_4734_3 + x_4734_4 - 2 restored_node_4734_Billings = 0 
fc_4734_Bismarck: x_4734_5 + x_4734_4 + x_4734_6 + x_4734_7 + x_4734_8 - restored_dc_4734_Bismarck = 0 
fc_4734_Ithaca: x_4734_9 + x_4734_8 - 2 restored_node_4734_Ithaca = 0 
fc_4734_Charleston: x_4734_10 + x_4734_11 + x_4734_12 - 2 restored_node_4734_Charleston = 0 
fc_4734_Charlotte: x_4734_12 + x_4734_13 + x_4734_14 + x_4734_15 - 2 restored_node_4734_Charlotte = 0 
fc_4734_Dallas: x_4734_16 + x_4734_17 + x_4734_18 + x_4734_19 - 2 restored_node_4734_Dallas = 0 
fc_4734_Denver: x_4734_3 + x_4734_20 + x_4734_21 + x_4734_5 + x_4734_22 - 2 restored_node_4734_Denver = 0 
fc_4734_Columbus: x_4734_7 + x_4734_23 + x_4734_24 - 2 restored_node_4734_Columbus = 0 
fc_4734_El_Paso: x_4734_21 + x_4734_25 + x_4734_18 + x_4734_26 - 2 restored_node_4734_El_Paso = 0 
fc_4734_Kansas_City: x_4734_22 + x_4734_6 + x_4734_16 + x_4734_27 - 2 restored_node_4734_Kansas_City = 0 
fc_4734_Las_Vegas: x_4734_28 + x_4734_29 + x_4734_30 - 2 restored_node_4734_Las_Vegas = 0 
fc_4734_Los_Angeles: x_4734_31 + x_4734_29 + x_4734_32 - 2 restored_node_4734_Los_Angeles = 0 
fc_4734_Louisville: x_4734_27 + x_4734_33 + x_4734_14 + x_4734_34 + x_4734_24 - 2 restored_node_4734_Louisville = 0 
fc_4734_New_Orleans: x_4734_37 - restored_4734 = 0 
fc_4734_New_York: x_4734_38 + x_4734_9 + x_4734_23 - 2 restored_node_4734_New_York = 0 
fc_4734_Birmingham: x_4734_19 + x_4734_11 + x_4734_15 + x_4734_34 - restored_dc_4734_Birmingham = 0 
fc_4734_Portland: x_4734_39 + x_4734_40 + x_4734_2 - 2 restored_node_4734_Portland = 0 
fc_4734_Salt_Lake_City: x_4734_41 + x_4734_30 + x_4734_42 + x_4734_0 + x_4734_20 - restored_dc_4734_Salt_Lake_City = 0 
fc_4734_San_Antonio: x_4734_17 + x_4734_26 - 2 restored_node_4734_San_Antonio = 0 
fc_4734_San_Francisco: x_4734_40 + x_4734_31 + x_4734_28 + x_4734_41 - 2 restored_node_4734_San_Francisco = 0 
fc_4734_Seattle: x_4734_39 + x_4734_1 - 2 restored_node_4734_Seattle = 0 
fc_4734_Tallahassee: x_4734_37 + x_4734_10 - 2 restored_node_4734_Tallahassee = 0 
fc_4734_Tucson: x_4734_32 + x_4734_42 + x_4734_25 - 2 restored_node_4734_Tucson = 0 
fc_4734_Washington_DC: x_4734_13 + x_4734_38 + x_4734_33 - 2 restored_node_4734_Washington_DC = 0 
fc_4432_Billings: x_4432_0 + x_4432_1 + x_4432_2 + x_4432_3 + x_4432_4 - 2 restored_node_4432_Billings = 0 
fc_4432_Bismarck: x_4432_5 + x_4432_4 + x_4432_6 + x_4432_7 + x_4432_8 - restored_dc_4432_Bismarck = 0 
fc_4432_Ithaca: x_4432_9 + x_4432_8 - 2 restored_node_4432_Ithaca = 0 
fc_4432_Charleston: x_4432_10 + x_4432_11 + x_4432_12 - 2 restored_node_4432_Charleston = 0 
fc_4432_Charlotte: x_4432_12 + x_4432_13 + x_4432_14 + x_4432_15 - 2 restored_node_4432_Charlotte = 0 
fc_4432_Dallas: x_4432_16 + x_4432_17 + x_4432_18 + x_4432_19 - 2 restored_node_4432_Dallas = 0 
fc_4432_Denver: x_4432_3 + x_4432_20 + x_4432_21 + x_4432_5 + x_4432_22 - 2 restored_node_4432_Denver = 0 
fc_4432_Columbus: x_4432_7 + x_4432_23 + x_4432_24 - 2 restored_node_4432_Columbus = 0 
fc_4432_El_Paso: x_4432_21 + x_4432_25 + x_4432_18 + x_4432_26 - 2 restored_node_4432_El_Paso = 0 
fc_4432_Kansas_City: x_4432_22 + x_4432_6 + x_4432_16 + x_4432_27 - 2 restored_node_4432_Kansas_City = 0 
fc_4432_Las_Vegas: x_4432_28 + x_4432_29 + x_4432_30 - 2 restored_node_4432_Las_Vegas = 0 
fc_4432_Los_Angeles: x_4432_31 + x_4432_29 + x_4432_32 - 2 restored_node_4432_Los_Angeles = 0 
fc_4432_Louisville: x_4432_27 + x_4432_33 + x_4432_14 + x_4432_34 + x_4432_24 - 2 restored_node_4432_Louisville = 0 
fc_4432_New_Orleans: x_4432_37 - 2 restored_node_4432_New_Orleans = 0 
fc_4432_New_York: x_4432_38 + x_4432_9 + x_4432_23 - 2 restored_node_4432_New_York = 0 
fc_4432_Birmingham: x_4432_19 + x_4432_11 + x_4432_15 + x_4432_34 - restored_dc_4432_Birmingham = 0 
fc_4432_Portland: x_4432_39 + x_4432_40 + x_4432_2 - 2 restored_node_4432_Portland = 0 
fc_4432_Salt_Lake_City: x_4432_41 + x_4432_30 + x_4432_42 + x_4432_0 + x_4432_20 - restored_dc_4432_Salt_Lake_City = 0 
fc_4432_San_Antonio: x_4432_17 + x_4432_26 - 2 restored_node_4432_San_Antonio = 0 
fc_4432_San_Francisco: x_4432_40 + x_4432_31 + x_4432_28 + x_4432_41 - 2 restored_node_4432_San_Francisco = 0 
fc_4432_Seattle: x_4432_39 + x_4432_1 - 2 restored_node_4432_Seattle = 0 
fc_4432_Tallahassee: x_4432_37 + x_4432_10 - restored_4432 = 0 
fc_4432_Tucson: x_4432_32 + x_4432_42 + x_4432_25 - 2 restored_node_4432_Tucson = 0 
fc_4432_Washington_DC: x_4432_13 + x_4432_38 + x_4432_33 - 2 restored_node_4432_Washington_DC = 0 
fc_4621_Billings: x_4621_0 + x_4621_1 + x_4621_2 + x_4621_3 + x_4621_4 - 2 restored_node_4621_Billings = 0 
fc_4621_Bismarck: x_4621_5 + x_4621_4 + x_4621_6 + x_4621_7 + x_4621_8 - restored_dc_4621_Bismarck = 0 
fc_4621_Ithaca: x_4621_9 + x_4621_8 - 2 restored_node_4621_Ithaca = 0 
fc_4621_Charleston: x_4621_10 + x_4621_11 + x_4621_12 - 2 restored_node_4621_Charleston = 0 
fc_4621_Charlotte: x_4621_12 + x_4621_13 + x_4621_14 + x_4621_15 - 2 restored_node_4621_Charlotte = 0 
fc_4621_Dallas: x_4621_16 + x_4621_17 + x_4621_18 + x_4621_19 - 2 restored_node_4621_Dallas = 0 
fc_4621_Denver: x_4621_3 + x_4621_20 + x_4621_21 + x_4621_5 + x_4621_22 - 2 restored_node_4621_Denver = 0 
fc_4621_Columbus: x_4621_7 + x_4621_23 + x_4621_24 - 2 restored_node_4621_Columbus = 0 
fc_4621_El_Paso: x_4621_21 + x_4621_25 + x_4621_18 + x_4621_26 - 2 restored_node_4621_El_Paso = 0 
fc_4621_Kansas_City: x_4621_22 + x_4621_6 + x_4621_16 + x_4621_27 - 2 restored_node_4621_Kansas_City = 0 
fc_4621_Las_Vegas: x_4621_28 + x_4621_29 + x_4621_30 - 2 restored_node_4621_Las_Vegas = 0 
fc_4621_Los_Angeles: x_4621_31 + x_4621_29 + x_4621_32 - 2 restored_node_4621_Los_Angeles = 0 
fc_4621_Louisville: x_4621_27 + x_4621_33 + x_4621_14 + x_4621_34 + x_4621_24 - 2 restored_node_4621_Louisville = 0 
fc_4621_New_Orleans: x_4621_37 - restored_4621 = 0 
fc_4621_New_York: x_4621_38 + x_4621_9 + x_4621_23 - 2 restored_node_4621_New_York = 0 
fc_4621_Birmingham: x_4621_19 + x_4621_11 + x_4621_15 + x_4621_34 - restored_dc_4621_Birmingham = 0 
fc_4621_Portland: x_4621_39 + x_4621_40 + x_4621_2 - 2 restored_node_4621_Portland = 0 
fc_4621_Salt_Lake_City: x_4621_41 + x_4621_30 + x_4621_42 + x_4621_0 + x_4621_20 - restored_dc_4621_Salt_Lake_City = 0 
fc_4621_San_Antonio: x_4621_17 + x_4621_26 - 2 restored_node_4621_San_Antonio = 0 
fc_4621_San_Francisco: x_4621_40 + x_4621_31 + x_4621_28 + x_4621_41 - 2 restored_node_4621_San_Francisco = 0 
fc_4621_Seattle: x_4621_39 + x_4621_1 - 2 restored_node_4621_Seattle = 0 
fc_4621_Tallahassee: x_4621_37 + x_4621_10 - 2 restored_node_4621_Tallahassee = 0 
fc_4621_Tucson: x_4621_32 + x_4621_42 + x_4621_25 - 2 restored_node_4621_Tucson = 0 
fc_4621_Washington_DC: x_4621_13 + x_4621_38 + x_4621_33 - 2 restored_node_4621_Washington_DC = 0 
fc_4710_Billings: x_4710_0 + x_4710_1 + x_4710_2 + x_4710_3 + x_4710_4 - 2 restored_node_4710_Billings = 0 
fc_4710_Bismarck: x_4710_5 + x_4710_4 + x_4710_6 + x_4710_7 + x_4710_8 - restored_dc_4710_Bismarck = 0 
fc_4710_Ithaca: x_4710_9 + x_4710_8 - 2 restored_node_4710_Ithaca = 0 
fc_4710_Charleston: x_4710_10 + x_4710_11 + x_4710_12 - 2 restored_node_4710_Charleston = 0 
fc_4710_Charlotte: x_4710_12 + x_4710_13 + x_4710_14 + x_4710_15 - 2 restored_node_4710_Charlotte = 0 
fc_4710_Dallas: x_4710_16 + x_4710_17 + x_4710_18 + x_4710_19 - 2 restored_node_4710_Dallas = 0 
fc_4710_Denver: x_4710_3 + x_4710_20 + x_4710_21 + x_4710_5 + x_4710_22 - 2 restored_node_4710_Denver = 0 
fc_4710_Columbus: x_4710_7 + x_4710_23 + x_4710_24 - 2 restored_node_4710_Columbus = 0 
fc_4710_El_Paso: x_4710_21 + x_4710_25 + x_4710_18 + x_4710_26 - 2 restored_node_4710_El_Paso = 0 
fc_4710_Kansas_City: x_4710_22 + x_4710_6 + x_4710_16 + x_4710_27 - 2 restored_node_4710_Kansas_City = 0 
fc_4710_Las_Vegas: x_4710_28 + x_4710_29 + x_4710_30 - 2 restored_node_4710_Las_Vegas = 0 
fc_4710_Los_Angeles: x_4710_31 + x_4710_29 + x_4710_32 - 2 restored_node_4710_Los_Angeles = 0 
fc_4710_Louisville: x_4710_27 + x_4710_33 + x_4710_14 + x_4710_34 + x_4710_24 - 2 restored_node_4710_Louisville = 0 
fc_4710_New_Orleans: x_4710_37 - restored_4710 = 0 
fc_4710_New_York: x_4710_38 + x_4710_9 + x_4710_23 - 2 restored_node_4710_New_York = 0 
fc_4710_Birmingham: x_4710_19 + x_4710_11 + x_4710_15 + x_4710_34 - restored_dc_4710_Birmingham = 0 
fc_4710_Portland: x_4710_39 + x_4710_40 + x_4710_2 - 2 restored_node_4710_Portland = 0 
fc_4710_Salt_Lake_City: x_4710_41 + x_4710_30 + x_4710_42 + x_4710_0 + x_4710_20 - restored_dc_4710_Salt_Lake_City = 0 
fc_4710_San_Antonio: x_4710_17 + x_4710_26 - 2 restored_node_4710_San_Antonio = 0 
fc_4710_San_Francisco: x_4710_40 + x_4710_31 + x_4710_28 + x_4710_41 - 2 restored_node_4710_San_Francisco = 0 
fc_4710_Seattle: x_4710_39 + x_4710_1 - 2 restored_node_4710_Seattle = 0 
fc_4710_Tallahassee: x_4710_37 + x_4710_10 - 2 restored_node_4710_Tallahassee = 0 
fc_4710_Tucson: x_4710_32 + x_4710_42 + x_4710_25 - 2 restored_node_4710_Tucson = 0 
fc_4710_Washington_DC: x_4710_13 + x_4710_38 + x_4710_33 - 2 restored_node_4710_Washington_DC = 0 
fc_4865_Billings: x_4865_0 + x_4865_1 + x_4865_2 + x_4865_3 + x_4865_4 - 2 restored_node_4865_Billings = 0 
fc_4865_Bismarck: x_4865_5 + x_4865_4 + x_4865_6 + x_4865_7 + x_4865_8 - restored_dc_4865_Bismarck = 0 
fc_4865_Ithaca: x_4865_9 + x_4865_8 - 2 restored_node_4865_Ithaca = 0 
fc_4865_Charleston: x_4865_10 + x_4865_11 + x_4865_12 - 2 restored_node_4865_Charleston = 0 
fc_4865_Charlotte: x_4865_12 + x_4865_13 + x_4865_14 + x_4865_15 - 2 restored_node_4865_Charlotte = 0 
fc_4865_Dallas: x_4865_16 + x_4865_17 + x_4865_18 + x_4865_19 - 2 restored_node_4865_Dallas = 0 
fc_4865_Denver: x_4865_3 + x_4865_20 + x_4865_21 + x_4865_5 + x_4865_22 - 2 restored_node_4865_Denver = 0 
fc_4865_Columbus: x_4865_7 + x_4865_23 + x_4865_24 - 2 restored_node_4865_Columbus = 0 
fc_4865_El_Paso: x_4865_21 + x_4865_25 + x_4865_18 + x_4865_26 - 2 restored_node_4865_El_Paso = 0 
fc_4865_Kansas_City: x_4865_22 + x_4865_6 + x_4865_16 + x_4865_27 - 2 restored_node_4865_Kansas_City = 0 
fc_4865_Las_Vegas: x_4865_28 + x_4865_29 + x_4865_30 - 2 restored_node_4865_Las_Vegas = 0 
fc_4865_Los_Angeles: x_4865_31 + x_4865_29 + x_4865_32 - 2 restored_node_4865_Los_Angeles = 0 
fc_4865_Louisville: x_4865_27 + x_4865_33 + x_4865_14 + x_4865_34 + x_4865_24 - 2 restored_node_4865_Louisville = 0 
fc_4865_New_Orleans: x_4865_37 - 2 restored_node_4865_New_Orleans = 0 
fc_4865_New_York: x_4865_38 + x_4865_9 + x_4865_23 - 2 restored_node_4865_New_York = 0 
fc_4865_Birmingham: x_4865_19 + x_4865_11 + x_4865_15 + x_4865_34 - restored_dc_4865_Birmingham = 0 
fc_4865_Portland: x_4865_39 + x_4865_40 + x_4865_2 - 2 restored_node_4865_Portland = 0 
fc_4865_Salt_Lake_City: x_4865_41 + x_4865_30 + x_4865_42 + x_4865_0 + x_4865_20 - restored_dc_4865_Salt_Lake_City = 0 
fc_4865_San_Antonio: x_4865_17 + x_4865_26 - 2 restored_node_4865_San_Antonio = 0 
fc_4865_San_Francisco: x_4865_40 + x_4865_31 + x_4865_28 + x_4865_41 - 2 restored_node_4865_San_Francisco = 0 
fc_4865_Seattle: x_4865_39 + x_4865_1 - 2 restored_node_4865_Seattle = 0 
fc_4865_Tallahassee: x_4865_37 + x_4865_10 - restored_4865 = 0 
fc_4865_Tucson: x_4865_32 + x_4865_42 + x_4865_25 - 2 restored_node_4865_Tucson = 0 
fc_4865_Washington_DC: x_4865_13 + x_4865_38 + x_4865_33 - 2 restored_node_4865_Washington_DC = 0 
fc_4647_Billings: x_4647_0 + x_4647_1 + x_4647_2 + x_4647_3 + x_4647_4 - 2 restored_node_4647_Billings = 0 
fc_4647_Bismarck: x_4647_5 + x_4647_4 + x_4647_6 + x_4647_7 + x_4647_8 - restored_dc_4647_Bismarck = 0 
fc_4647_Ithaca: x_4647_9 + x_4647_8 - 2 restored_node_4647_Ithaca = 0 
fc_4647_Charleston: x_4647_10 + x_4647_11 + x_4647_12 - 2 restored_node_4647_Charleston = 0 
fc_4647_Charlotte: x_4647_12 + x_4647_13 + x_4647_14 + x_4647_15 - 2 restored_node_4647_Charlotte = 0 
fc_4647_Dallas: x_4647_16 + x_4647_17 + x_4647_18 + x_4647_19 - 2 restored_node_4647_Dallas = 0 
fc_4647_Denver: x_4647_3 + x_4647_20 + x_4647_21 + x_4647_5 + x_4647_22 - 2 restored_node_4647_Denver = 0 
fc_4647_Columbus: x_4647_7 + x_4647_23 + x_4647_24 - 2 restored_node_4647_Columbus = 0 
fc_4647_El_Paso: x_4647_21 + x_4647_25 + x_4647_18 + x_4647_26 - 2 restored_node_4647_El_Paso = 0 
fc_4647_Kansas_City: x_4647_22 + x_4647_6 + x_4647_16 + x_4647_27 - 2 restored_node_4647_Kansas_City = 0 
fc_4647_Las_Vegas: x_4647_28 + x_4647_29 + x_4647_30 - 2 restored_node_4647_Las_Vegas = 0 
fc_4647_Los_Angeles: x_4647_31 + x_4647_29 + x_4647_32 - 2 restored_node_4647_Los_Angeles = 0 
fc_4647_Louisville: x_4647_27 + x_4647_33 + x_4647_14 + x_4647_34 + x_4647_24 - 2 restored_node_4647_Louisville = 0 
fc_4647_New_Orleans: x_4647_37 - 2 restored_node_4647_New_Orleans = 0 
fc_4647_New_York: x_4647_38 + x_4647_9 + x_4647_23 - 2 restored_node_4647_New_York = 0 
fc_4647_Birmingham: x_4647_19 + x_4647_11 + x_4647_15 + x_4647_34 - restored_dc_4647_Birmingham = 0 
fc_4647_Portland: x_4647_39 + x_4647_40 + x_4647_2 - 2 restored_node_4647_Portland = 0 
fc_4647_Salt_Lake_City: x_4647_41 + x_4647_30 + x_4647_42 + x_4647_0 + x_4647_20 - restored_dc_4647_Salt_Lake_City = 0 
fc_4647_San_Antonio: x_4647_17 + x_4647_26 - 2 restored_node_4647_San_Antonio = 0 
fc_4647_San_Francisco: x_4647_40 + x_4647_31 + x_4647_28 + x_4647_41 - 2 restored_node_4647_San_Francisco = 0 
fc_4647_Seattle: x_4647_39 + x_4647_1 - 2 restored_node_4647_Seattle = 0 
fc_4647_Tallahassee: x_4647_37 + x_4647_10 - restored_4647 = 0 
fc_4647_Tucson: x_4647_32 + x_4647_42 + x_4647_25 - 2 restored_node_4647_Tucson = 0 
fc_4647_Washington_DC: x_4647_13 + x_4647_38 + x_4647_33 - 2 restored_node_4647_Washington_DC = 0 
fc_3381_Billings: x_3381_0 + x_3381_1 + x_3381_2 + x_3381_3 + x_3381_4 - 2 restored_node_3381_Billings = 0 
fc_3381_Bismarck: x_3381_5 + x_3381_4 + x_3381_6 + x_3381_7 + x_3381_8 - restored_dc_3381_Bismarck = 0 
fc_3381_Ithaca: x_3381_9 + x_3381_8 - 2 restored_node_3381_Ithaca = 0 
fc_3381_Charleston: x_3381_10 + x_3381_11 + x_3381_12 - 2 restored_node_3381_Charleston = 0 
fc_3381_Charlotte: x_3381_12 + x_3381_13 + x_3381_14 + x_3381_15 - 2 restored_node_3381_Charlotte = 0 
fc_3381_Dallas: x_3381_16 + x_3381_17 + x_3381_18 + x_3381_19 - 2 restored_node_3381_Dallas = 0 
fc_3381_Denver: x_3381_3 + x_3381_20 + x_3381_21 + x_3381_5 + x_3381_22 - 2 restored_node_3381_Denver = 0 
fc_3381_Columbus: x_3381_7 + x_3381_23 + x_3381_24 - 2 restored_node_3381_Columbus = 0 
fc_3381_El_Paso: x_3381_21 + x_3381_25 + x_3381_18 + x_3381_26 - 2 restored_node_3381_El_Paso = 0 
fc_3381_Kansas_City: x_3381_22 + x_3381_6 + x_3381_16 + x_3381_27 - 2 restored_node_3381_Kansas_City = 0 
fc_3381_Las_Vegas: x_3381_28 + x_3381_29 + x_3381_30 - 2 restored_node_3381_Las_Vegas = 0 
fc_3381_Los_Angeles: x_3381_31 + x_3381_29 + x_3381_32 - 2 restored_node_3381_Los_Angeles = 0 
fc_3381_Louisville: x_3381_27 + x_3381_33 + x_3381_14 + x_3381_34 + x_3381_24 - 2 restored_node_3381_Louisville = 0 
fc_3381_New_Orleans: x_3381_37 - 2 restored_node_3381_New_Orleans = 0 
fc_3381_New_York: x_3381_38 + x_3381_9 + x_3381_23 - 2 restored_node_3381_New_York = 0 
fc_3381_Birmingham: x_3381_19 + x_3381_11 + x_3381_15 + x_3381_34 - restored_dc_3381_Birmingham = 0 
fc_3381_Portland: x_3381_39 + x_3381_40 + x_3381_2 - 2 restored_node_3381_Portland = 0 
fc_3381_Salt_Lake_City: x_3381_41 + x_3381_30 + x_3381_42 + x_3381_0 + x_3381_20 - restored_dc_3381_Salt_Lake_City = 0 
fc_3381_San_Antonio: x_3381_17 + x_3381_26 - 2 restored_node_3381_San_Antonio = 0 
fc_3381_San_Francisco: x_3381_40 + x_3381_31 + x_3381_28 + x_3381_41 - 2 restored_node_3381_San_Francisco = 0 
fc_3381_Seattle: x_3381_39 + x_3381_1 - 2 restored_node_3381_Seattle = 0 
fc_3381_Tallahassee: x_3381_37 + x_3381_10 - restored_3381 = 0 
fc_3381_Tucson: x_3381_32 + x_3381_42 + x_3381_25 - 2 restored_node_3381_Tucson = 0 
fc_3381_Washington_DC: x_3381_13 + x_3381_38 + x_3381_33 - 2 restored_node_3381_Washington_DC = 0 
fc_3209_Billings: x_3209_0 + x_3209_1 + x_3209_2 + x_3209_3 + x_3209_4 - 2 restored_node_3209_Billings = 0 
fc_3209_Bismarck: x_3209_5 + x_3209_4 + x_3209_6 + x_3209_7 + x_3209_8 - restored_dc_3209_Bismarck = 0 
fc_3209_Ithaca: x_3209_9 + x_3209_8 - 2 restored_node_3209_Ithaca = 0 
fc_3209_Charleston: x_3209_10 + x_3209_11 + x_3209_12 - 2 restored_node_3209_Charleston = 0 
fc_3209_Charlotte: x_3209_12 + x_3209_13 + x_3209_14 + x_3209_15 - 2 restored_node_3209_Charlotte = 0 
fc_3209_Dallas: x_3209_16 + x_3209_17 + x_3209_18 + x_3209_19 - 2 restored_node_3209_Dallas = 0 
fc_3209_Denver: x_3209_3 + x_3209_20 + x_3209_21 + x_3209_5 + x_3209_22 - 2 restored_node_3209_Denver = 0 
fc_3209_Columbus: x_3209_7 + x_3209_23 + x_3209_24 - 2 restored_node_3209_Columbus = 0 
fc_3209_El_Paso: x_3209_21 + x_3209_25 + x_3209_18 + x_3209_26 - 2 restored_node_3209_El_Paso = 0 
fc_3209_Kansas_City: x_3209_22 + x_3209_6 + x_3209_16 + x_3209_27 - 2 restored_node_3209_Kansas_City = 0 
fc_3209_Las_Vegas: x_3209_28 + x_3209_29 + x_3209_30 - 2 restored_node_3209_Las_Vegas = 0 
fc_3209_Los_Angeles: x_3209_31 + x_3209_29 + x_3209_32 - 2 restored_node_3209_Los_Angeles = 0 
fc_3209_Louisville: x_3209_27 + x_3209_33 + x_3209_14 + x_3209_34 + x_3209_24 - 2 restored_node_3209_Louisville = 0 
fc_3209_New_Orleans: x_3209_37 - 2 restored_node_3209_New_Orleans = 0 
fc_3209_New_York: x_3209_38 + x_3209_9 + x_3209_23 - 2 restored_node_3209_New_York = 0 
fc_3209_Birmingham: x_3209_19 + x_3209_11 + x_3209_15 + x_3209_34 - restored_dc_3209_Birmingham = 0 
fc_3209_Portland: x_3209_39 + x_3209_40 + x_3209_2 - 2 restored_node_3209_Portland = 0 
fc_3209_Salt_Lake_City: x_3209_41 + x_3209_30 + x_3209_42 + x_3209_0 + x_3209_20 - restored_dc_3209_Salt_Lake_City = 0 
fc_3209_San_Antonio: x_3209_17 + x_3209_26 - 2 restored_node_3209_San_Antonio = 0 
fc_3209_San_Francisco: x_3209_40 + x_3209_31 + x_3209_28 + x_3209_41 - 2 restored_node_3209_San_Francisco = 0 
fc_3209_Seattle: x_3209_39 + x_3209_1 - 2 restored_node_3209_Seattle = 0 
fc_3209_Tallahassee: x_3209_37 + x_3209_10 - restored_3209 = 0 
fc_3209_Tucson: x_3209_32 + x_3209_42 + x_3209_25 - 2 restored_node_3209_Tucson = 0 
fc_3209_Washington_DC: x_3209_13 + x_3209_38 + x_3209_33 - 2 restored_node_3209_Washington_DC = 0 
fc_4453_Billings: x_4453_0 + x_4453_1 + x_4453_2 + x_4453_3 + x_4453_4 - 2 restored_node_4453_Billings = 0 
fc_4453_Bismarck: x_4453_5 + x_4453_4 + x_4453_6 + x_4453_7 + x_4453_8 - restored_dc_4453_Bismarck = 0 
fc_4453_Ithaca: x_4453_9 + x_4453_8 - 2 restored_node_4453_Ithaca = 0 
fc_4453_Charleston: x_4453_10 + x_4453_11 + x_4453_12 - 2 restored_node_4453_Charleston = 0 
fc_4453_Charlotte: x_4453_12 + x_4453_13 + x_4453_14 + x_4453_15 - 2 restored_node_4453_Charlotte = 0 
fc_4453_Dallas: x_4453_16 + x_4453_17 + x_4453_18 + x_4453_19 - 2 restored_node_4453_Dallas = 0 
fc_4453_Denver: x_4453_3 + x_4453_20 + x_4453_21 + x_4453_5 + x_4453_22 - 2 restored_node_4453_Denver = 0 
fc_4453_Columbus: x_4453_7 + x_4453_23 + x_4453_24 - 2 restored_node_4453_Columbus = 0 
fc_4453_El_Paso: x_4453_21 + x_4453_25 + x_4453_18 + x_4453_26 - 2 restored_node_4453_El_Paso = 0 
fc_4453_Kansas_City: x_4453_22 + x_4453_6 + x_4453_16 + x_4453_27 - 2 restored_node_4453_Kansas_City = 0 
fc_4453_Las_Vegas: x_4453_28 + x_4453_29 + x_4453_30 - 2 restored_node_4453_Las_Vegas = 0 
fc_4453_Los_Angeles: x_4453_31 + x_4453_29 + x_4453_32 - 2 restored_node_4453_Los_Angeles = 0 
fc_4453_Louisville: x_4453_27 + x_4453_33 + x_4453_14 + x_4453_34 + x_4453_24 - 2 restored_node_4453_Louisville = 0 
fc_4453_New_Orleans: x_4453_37 - 2 restored_node_4453_New_Orleans = 0 
fc_4453_New_York: x_4453_38 + x_4453_9 + x_4453_23 - 2 restored_node_4453_New_York = 0 
fc_4453_Birmingham: x_4453_19 + x_4453_11 + x_4453_15 + x_4453_34 - restored_dc_4453_Birmingham = 0 
fc_4453_Portland: x_4453_39 + x_4453_40 + x_4453_2 - 2 restored_node_4453_Portland = 0 
fc_4453_Salt_Lake_City: x_4453_41 + x_4453_30 + x_4453_42 + x_4453_0 + x_4453_20 - restored_dc_4453_Salt_Lake_City = 0 
fc_4453_San_Antonio: x_4453_17 + x_4453_26 - 2 restored_node_4453_San_Antonio = 0 
fc_4453_San_Francisco: x_4453_40 + x_4453_31 + x_4453_28 + x_4453_41 - 2 restored_node_4453_San_Francisco = 0 
fc_4453_Seattle: x_4453_39 + x_4453_1 - 2 restored_node_4453_Seattle = 0 
fc_4453_Tallahassee: x_4453_37 + x_4453_10 - restored_4453 = 0 
fc_4453_Tucson: x_4453_32 + x_4453_42 + x_4453_25 - 2 restored_node_4453_Tucson = 0 
fc_4453_Washington_DC: x_4453_13 + x_4453_38 + x_4453_33 - 2 restored_node_4453_Washington_DC = 0 
fc_2620_Billings: x_2620_0 + x_2620_1 + x_2620_2 + x_2620_3 + x_2620_4 - 2 restored_node_2620_Billings = 0 
fc_2620_Bismarck: x_2620_5 + x_2620_4 + x_2620_6 + x_2620_7 + x_2620_8 - restored_dc_2620_Bismarck = 0 
fc_2620_Ithaca: x_2620_9 + x_2620_8 - 2 restored_node_2620_Ithaca = 0 
fc_2620_Charleston: x_2620_10 + x_2620_11 + x_2620_12 - 2 restored_node_2620_Charleston = 0 
fc_2620_Charlotte: x_2620_12 + x_2620_13 + x_2620_14 + x_2620_15 - 2 restored_node_2620_Charlotte = 0 
fc_2620_Dallas: x_2620_16 + x_2620_17 + x_2620_18 + x_2620_19 - 2 restored_node_2620_Dallas = 0 
fc_2620_Denver: x_2620_3 + x_2620_20 + x_2620_21 + x_2620_5 + x_2620_22 - 2 restored_node_2620_Denver = 0 
fc_2620_Columbus: x_2620_7 + x_2620_23 + x_2620_24 - 2 restored_node_2620_Columbus = 0 
fc_2620_El_Paso: x_2620_21 + x_2620_25 + x_2620_18 + x_2620_26 - 2 restored_node_2620_El_Paso = 0 
fc_2620_Kansas_City: x_2620_22 + x_2620_6 + x_2620_16 + x_2620_27 - 2 restored_node_2620_Kansas_City = 0 
fc_2620_Las_Vegas: x_2620_28 + x_2620_29 + x_2620_30 - 2 restored_node_2620_Las_Vegas = 0 
fc_2620_Los_Angeles: x_2620_31 + x_2620_29 + x_2620_32 - 2 restored_node_2620_Los_Angeles = 0 
fc_2620_Louisville: x_2620_27 + x_2620_33 + x_2620_14 + x_2620_34 + x_2620_24 - 2 restored_node_2620_Louisville = 0 
fc_2620_New_Orleans: x_2620_37 - 2 restored_node_2620_New_Orleans = 0 
fc_2620_New_York: x_2620_38 + x_2620_9 + x_2620_23 - 2 restored_node_2620_New_York = 0 
fc_2620_Birmingham: x_2620_19 + x_2620_11 + x_2620_15 + x_2620_34 - restored_dc_2620_Birmingham = 0 
fc_2620_Portland: x_2620_39 + x_2620_40 + x_2620_2 - 2 restored_node_2620_Portland = 0 
fc_2620_Salt_Lake_City: x_2620_41 + x_2620_30 + x_2620_42 + x_2620_0 + x_2620_20 - restored_dc_2620_Salt_Lake_City = 0 
fc_2620_San_Antonio: x_2620_17 + x_2620_26 - restored_2620 = 0 
fc_2620_San_Francisco: x_2620_40 + x_2620_31 + x_2620_28 + x_2620_41 - 2 restored_node_2620_San_Francisco = 0 
fc_2620_Seattle: x_2620_39 + x_2620_1 - 2 restored_node_2620_Seattle = 0 
fc_2620_Tallahassee: x_2620_37 + x_2620_10 - 2 restored_node_2620_Tallahassee = 0 
fc_2620_Tucson: x_2620_32 + x_2620_42 + x_2620_25 - 2 restored_node_2620_Tucson = 0 
fc_2620_Washington_DC: x_2620_13 + x_2620_38 + x_2620_33 - 2 restored_node_2620_Washington_DC = 0 
fc_4130_Billings: x_4130_0 + x_4130_1 + x_4130_2 + x_4130_3 + x_4130_4 - 2 restored_node_4130_Billings = 0 
fc_4130_Bismarck: x_4130_5 + x_4130_4 + x_4130_6 + x_4130_7 + x_4130_8 - restored_dc_4130_Bismarck = 0 
fc_4130_Ithaca: x_4130_9 + x_4130_8 - 2 restored_node_4130_Ithaca = 0 
fc_4130_Charleston: x_4130_10 + x_4130_11 + x_4130_12 - 2 restored_node_4130_Charleston = 0 
fc_4130_Charlotte: x_4130_12 + x_4130_13 + x_4130_14 + x_4130_15 - 2 restored_node_4130_Charlotte = 0 
fc_4130_Dallas: x_4130_16 + x_4130_17 + x_4130_18 + x_4130_19 - 2 restored_node_4130_Dallas = 0 
fc_4130_Denver: x_4130_3 + x_4130_20 + x_4130_21 + x_4130_5 + x_4130_22 - 2 restored_node_4130_Denver = 0 
fc_4130_Columbus: x_4130_7 + x_4130_23 + x_4130_24 - 2 restored_node_4130_Columbus = 0 
fc_4130_El_Paso: x_4130_21 + x_4130_25 + x_4130_18 + x_4130_26 - 2 restored_node_4130_El_Paso = 0 
fc_4130_Kansas_City: x_4130_22 + x_4130_6 + x_4130_16 + x_4130_27 - 2 restored_node_4130_Kansas_City = 0 
fc_4130_Las_Vegas: x_4130_28 + x_4130_29 + x_4130_30 - 2 restored_node_4130_Las_Vegas = 0 
fc_4130_Los_Angeles: x_4130_31 + x_4130_29 + x_4130_32 - 2 restored_node_4130_Los_Angeles = 0 
fc_4130_Louisville: x_4130_27 + x_4130_33 + x_4130_14 + x_4130_34 + x_4130_24 - 2 restored_node_4130_Louisville = 0 
fc_4130_New_Orleans: x_4130_37 - 2 restored_node_4130_New_Orleans = 0 
fc_4130_New_York: x_4130_38 + x_4130_9 + x_4130_23 - 2 restored_node_4130_New_York = 0 
fc_4130_Birmingham: x_4130_19 + x_4130_11 + x_4130_15 + x_4130_34 - restored_dc_4130_Birmingham = 0 
fc_4130_Portland: x_4130_39 + x_4130_40 + x_4130_2 - 2 restored_node_4130_Portland = 0 
fc_4130_Salt_Lake_City: x_4130_41 + x_4130_30 + x_4130_42 + x_4130_0 + x_4130_20 - restored_dc_4130_Salt_Lake_City = 0 
fc_4130_San_Antonio: x_4130_17 + x_4130_26 - 2 restored_node_4130_San_Antonio = 0 
fc_4130_San_Francisco: x_4130_40 + x_4130_31 + x_4130_28 + x_4130_41 - 2 restored_node_4130_San_Francisco = 0 
fc_4130_Seattle: x_4130_39 + x_4130_1 - 2 restored_node_4130_Seattle = 0 
fc_4130_Tallahassee: x_4130_37 + x_4130_10 - restored_4130 = 0 
fc_4130_Tucson: x_4130_32 + x_4130_42 + x_4130_25 - 2 restored_node_4130_Tucson = 0 
fc_4130_Washington_DC: x_4130_13 + x_4130_38 + x_4130_33 - 2 restored_node_4130_Washington_DC = 0 
fc_4354_Billings: x_4354_0 + x_4354_1 + x_4354_2 + x_4354_3 + x_4354_4 - 2 restored_node_4354_Billings = 0 
fc_4354_Bismarck: x_4354_5 + x_4354_4 + x_4354_6 + x_4354_7 + x_4354_8 - restored_dc_4354_Bismarck = 0 
fc_4354_Ithaca: x_4354_9 + x_4354_8 - 2 restored_node_4354_Ithaca = 0 
fc_4354_Charleston: x_4354_10 + x_4354_11 + x_4354_12 - 2 restored_node_4354_Charleston = 0 
fc_4354_Charlotte: x_4354_12 + x_4354_13 + x_4354_14 + x_4354_15 - 2 restored_node_4354_Charlotte = 0 
fc_4354_Dallas: x_4354_16 + x_4354_17 + x_4354_18 + x_4354_19 - 2 restored_node_4354_Dallas = 0 
fc_4354_Denver: x_4354_3 + x_4354_20 + x_4354_21 + x_4354_5 + x_4354_22 - 2 restored_node_4354_Denver = 0 
fc_4354_Columbus: x_4354_7 + x_4354_23 + x_4354_24 - 2 restored_node_4354_Columbus = 0 
fc_4354_El_Paso: x_4354_21 + x_4354_25 + x_4354_18 + x_4354_26 - 2 restored_node_4354_El_Paso = 0 
fc_4354_Kansas_City: x_4354_22 + x_4354_6 + x_4354_16 + x_4354_27 - 2 restored_node_4354_Kansas_City = 0 
fc_4354_Las_Vegas: x_4354_28 + x_4354_29 + x_4354_30 - 2 restored_node_4354_Las_Vegas = 0 
fc_4354_Los_Angeles: x_4354_31 + x_4354_29 + x_4354_32 - 2 restored_node_4354_Los_Angeles = 0 
fc_4354_Louisville: x_4354_27 + x_4354_33 + x_4354_14 + x_4354_34 + x_4354_24 - 2 restored_node_4354_Louisville = 0 
fc_4354_New_Orleans: x_4354_37 - 2 restored_node_4354_New_Orleans = 0 
fc_4354_New_York: x_4354_38 + x_4354_9 + x_4354_23 - 2 restored_node_4354_New_York = 0 
fc_4354_Birmingham: x_4354_19 + x_4354_11 + x_4354_15 + x_4354_34 - restored_dc_4354_Birmingham = 0 
fc_4354_Portland: x_4354_39 + x_4354_40 + x_4354_2 - 2 restored_node_4354_Portland = 0 
fc_4354_Salt_Lake_City: x_4354_41 + x_4354_30 + x_4354_42 + x_4354_0 + x_4354_20 - restored_dc_4354_Salt_Lake_City = 0 
fc_4354_San_Antonio: x_4354_17 + x_4354_26 - restored_4354 = 0 
fc_4354_San_Francisco: x_4354_40 + x_4354_31 + x_4354_28 + x_4354_41 - 2 restored_node_4354_San_Francisco = 0 
fc_4354_Seattle: x_4354_39 + x_4354_1 - 2 restored_node_4354_Seattle = 0 
fc_4354_Tallahassee: x_4354_37 + x_4354_10 - 2 restored_node_4354_Tallahassee = 0 
fc_4354_Tucson: x_4354_32 + x_4354_42 + x_4354_25 - 2 restored_node_4354_Tucson = 0 
fc_4354_Washington_DC: x_4354_13 + x_4354_38 + x_4354_33 - 2 restored_node_4354_Washington_DC = 0 
fc_4433_Billings: x_4433_0 + x_4433_1 + x_4433_2 + x_4433_3 + x_4433_4 - 2 restored_node_4433_Billings = 0 
fc_4433_Bismarck: x_4433_5 + x_4433_4 + x_4433_6 + x_4433_7 + x_4433_8 - restored_dc_4433_Bismarck = 0 
fc_4433_Ithaca: x_4433_9 + x_4433_8 - 2 restored_node_4433_Ithaca = 0 
fc_4433_Charleston: x_4433_10 + x_4433_11 + x_4433_12 - 2 restored_node_4433_Charleston = 0 
fc_4433_Charlotte: x_4433_12 + x_4433_13 + x_4433_14 + x_4433_15 - 2 restored_node_4433_Charlotte = 0 
fc_4433_Dallas: x_4433_16 + x_4433_17 + x_4433_18 + x_4433_19 - 2 restored_node_4433_Dallas = 0 
fc_4433_Denver: x_4433_3 + x_4433_20 + x_4433_21 + x_4433_5 + x_4433_22 - 2 restored_node_4433_Denver = 0 
fc_4433_Columbus: x_4433_7 + x_4433_23 + x_4433_24 - 2 restored_node_4433_Columbus = 0 
fc_4433_El_Paso: x_4433_21 + x_4433_25 + x_4433_18 + x_4433_26 - 2 restored_node_4433_El_Paso = 0 
fc_4433_Kansas_City: x_4433_22 + x_4433_6 + x_4433_16 + x_4433_27 - 2 restored_node_4433_Kansas_City = 0 
fc_4433_Las_Vegas: x_4433_28 + x_4433_29 + x_4433_30 - 2 restored_node_4433_Las_Vegas = 0 
fc_4433_Los_Angeles: x_4433_31 + x_4433_29 + x_4433_32 - 2 restored_node_4433_Los_Angeles = 0 
fc_4433_Louisville: x_4433_27 + x_4433_33 + x_4433_14 + x_4433_34 + x_4433_24 - 2 restored_node_4433_Louisville = 0 
fc_4433_New_Orleans: x_4433_37 - 2 restored_node_4433_New_Orleans = 0 
fc_4433_New_York: x_4433_38 + x_4433_9 + x_4433_23 - 2 restored_node_4433_New_York = 0 
fc_4433_Birmingham: x_4433_19 + x_4433_11 + x_4433_15 + x_4433_34 - restored_dc_4433_Birmingham = 0 
fc_4433_Portland: x_4433_39 + x_4433_40 + x_4433_2 - 2 restored_node_4433_Portland = 0 
fc_4433_Salt_Lake_City: x_4433_41 + x_4433_30 + x_4433_42 + x_4433_0 + x_4433_20 - restored_dc_4433_Salt_Lake_City = 0 
fc_4433_San_Antonio: x_4433_17 + x_4433_26 - restored_4433 = 0 
fc_4433_San_Francisco: x_4433_40 + x_4433_31 + x_4433_28 + x_4433_41 - 2 restored_node_4433_San_Francisco = 0 
fc_4433_Seattle: x_4433_39 + x_4433_1 - 2 restored_node_4433_Seattle = 0 
fc_4433_Tallahassee: x_4433_37 + x_4433_10 - 2 restored_node_4433_Tallahassee = 0 
fc_4433_Tucson: x_4433_32 + x_4433_42 + x_4433_25 - 2 restored_node_4433_Tucson = 0 
fc_4433_Washington_DC: x_4433_13 + x_4433_38 + x_4433_33 - 2 restored_node_4433_Washington_DC = 0 
fc_4518_Billings: x_4518_0 + x_4518_1 + x_4518_2 + x_4518_3 + x_4518_4 - 2 restored_node_4518_Billings = 0 
fc_4518_Bismarck: x_4518_5 + x_4518_4 + x_4518_6 + x_4518_7 + x_4518_8 - restored_dc_4518_Bismarck = 0 
fc_4518_Ithaca: x_4518_9 + x_4518_8 - 2 restored_node_4518_Ithaca = 0 
fc_4518_Charleston: x_4518_10 + x_4518_11 + x_4518_12 - 2 restored_node_4518_Charleston = 0 
fc_4518_Charlotte: x_4518_12 + x_4518_13 + x_4518_14 + x_4518_15 - 2 restored_node_4518_Charlotte = 0 
fc_4518_Dallas: x_4518_16 + x_4518_17 + x_4518_18 + x_4518_19 - 2 restored_node_4518_Dallas = 0 
fc_4518_Denver: x_4518_3 + x_4518_20 + x_4518_21 + x_4518_5 + x_4518_22 - 2 restored_node_4518_Denver = 0 
fc_4518_Columbus: x_4518_7 + x_4518_23 + x_4518_24 - 2 restored_node_4518_Columbus = 0 
fc_4518_El_Paso: x_4518_21 + x_4518_25 + x_4518_18 + x_4518_26 - 2 restored_node_4518_El_Paso = 0 
fc_4518_Kansas_City: x_4518_22 + x_4518_6 + x_4518_16 + x_4518_27 - 2 restored_node_4518_Kansas_City = 0 
fc_4518_Las_Vegas: x_4518_28 + x_4518_29 + x_4518_30 - 2 restored_node_4518_Las_Vegas = 0 
fc_4518_Los_Angeles: x_4518_31 + x_4518_29 + x_4518_32 - 2 restored_node_4518_Los_Angeles = 0 
fc_4518_Louisville: x_4518_27 + x_4518_33 + x_4518_14 + x_4518_34 + x_4518_24 - 2 restored_node_4518_Louisville = 0 
fc_4518_New_Orleans: x_4518_37 - 2 restored_node_4518_New_Orleans = 0 
fc_4518_New_York: x_4518_38 + x_4518_9 + x_4518_23 - 2 restored_node_4518_New_York = 0 
fc_4518_Birmingham: x_4518_19 + x_4518_11 + x_4518_15 + x_4518_34 - restored_dc_4518_Birmingham = 0 
fc_4518_Portland: x_4518_39 + x_4518_40 + x_4518_2 - 2 restored_node_4518_Portland = 0 
fc_4518_Salt_Lake_City: x_4518_41 + x_4518_30 + x_4518_42 + x_4518_0 + x_4518_20 - restored_dc_4518_Salt_Lake_City = 0 
fc_4518_San_Antonio: x_4518_17 + x_4518_26 - 2 restored_node_4518_San_Antonio = 0 
fc_4518_San_Francisco: x_4518_40 + x_4518_31 + x_4518_28 + x_4518_41 - 2 restored_node_4518_San_Francisco = 0 
fc_4518_Seattle: x_4518_39 + x_4518_1 - 2 restored_node_4518_Seattle = 0 
fc_4518_Tallahassee: x_4518_37 + x_4518_10 - restored_4518 = 0 
fc_4518_Tucson: x_4518_32 + x_4518_42 + x_4518_25 - 2 restored_node_4518_Tucson = 0 
fc_4518_Washington_DC: x_4518_13 + x_4518_38 + x_4518_33 - 2 restored_node_4518_Washington_DC = 0 
fc_4644_Billings: x_4644_0 + x_4644_1 + x_4644_2 + x_4644_3 + x_4644_4 - 2 restored_node_4644_Billings = 0 
fc_4644_Bismarck: x_4644_5 + x_4644_4 + x_4644_6 + x_4644_7 + x_4644_8 - restored_dc_4644_Bismarck = 0 
fc_4644_Ithaca: x_4644_9 + x_4644_8 - 2 restored_node_4644_Ithaca = 0 
fc_4644_Charleston: x_4644_10 + x_4644_11 + x_4644_12 - 2 restored_node_4644_Charleston = 0 
fc_4644_Charlotte: x_4644_12 + x_4644_13 + x_4644_14 + x_4644_15 - 2 restored_node_4644_Charlotte = 0 
fc_4644_Dallas: x_4644_16 + x_4644_17 + x_4644_18 + x_4644_19 - 2 restored_node_4644_Dallas = 0 
fc_4644_Denver: x_4644_3 + x_4644_20 + x_4644_21 + x_4644_5 + x_4644_22 - 2 restored_node_4644_Denver = 0 
fc_4644_Columbus: x_4644_7 + x_4644_23 + x_4644_24 - 2 restored_node_4644_Columbus = 0 
fc_4644_El_Paso: x_4644_21 + x_4644_25 + x_4644_18 + x_4644_26 - 2 restored_node_4644_El_Paso = 0 
fc_4644_Kansas_City: x_4644_22 + x_4644_6 + x_4644_16 + x_4644_27 - 2 restored_node_4644_Kansas_City = 0 
fc_4644_Las_Vegas: x_4644_28 + x_4644_29 + x_4644_30 - 2 restored_node_4644_Las_Vegas = 0 
fc_4644_Los_Angeles: x_4644_31 + x_4644_29 + x_4644_32 - 2 restored_node_4644_Los_Angeles = 0 
fc_4644_Louisville: x_4644_27 + x_4644_33 + x_4644_14 + x_4644_34 + x_4644_24 - 2 restored_node_4644_Louisville = 0 
fc_4644_New_Orleans: x_4644_37 - 2 restored_node_4644_New_Orleans = 0 
fc_4644_New_York: x_4644_38 + x_4644_9 + x_4644_23 - 2 restored_node_4644_New_York = 0 
fc_4644_Birmingham: x_4644_19 + x_4644_11 + x_4644_15 + x_4644_34 - restored_dc_4644_Birmingham = 0 
fc_4644_Portland: x_4644_39 + x_4644_40 + x_4644_2 - 2 restored_node_4644_Portland = 0 
fc_4644_Salt_Lake_City: x_4644_41 + x_4644_30 + x_4644_42 + x_4644_0 + x_4644_20 - restored_dc_4644_Salt_Lake_City = 0 
fc_4644_San_Antonio: x_4644_17 + x_4644_26 - restored_4644 = 0 
fc_4644_San_Francisco: x_4644_40 + x_4644_31 + x_4644_28 + x_4644_41 - 2 restored_node_4644_San_Francisco = 0 
fc_4644_Seattle: x_4644_39 + x_4644_1 - 2 restored_node_4644_Seattle = 0 
fc_4644_Tallahassee: x_4644_37 + x_4644_10 - 2 restored_node_4644_Tallahassee = 0 
fc_4644_Tucson: x_4644_32 + x_4644_42 + x_4644_25 - 2 restored_node_4644_Tucson = 0 
fc_4644_Washington_DC: x_4644_13 + x_4644_38 + x_4644_33 - 2 restored_node_4644_Washington_DC = 0 
fc_3840_Billings: x_3840_0 + x_3840_1 + x_3840_2 + x_3840_3 + x_3840_4 - 2 restored_node_3840_Billings = 0 
fc_3840_Bismarck: x_3840_5 + x_3840_4 + x_3840_6 + x_3840_7 + x_3840_8 - restored_dc_3840_Bismarck = 0 
fc_3840_Ithaca: x_3840_9 + x_3840_8 - 2 restored_node_3840_Ithaca = 0 
fc_3840_Charleston: x_3840_10 + x_3840_11 + x_3840_12 - 2 restored_node_3840_Charleston = 0 
fc_3840_Charlotte: x_3840_12 + x_3840_13 + x_3840_14 + x_3840_15 - 2 restored_node_3840_Charlotte = 0 
fc_3840_Dallas: x_3840_16 + x_3840_17 + x_3840_18 + x_3840_19 - 2 restored_node_3840_Dallas = 0 
fc_3840_Denver: x_3840_3 + x_3840_20 + x_3840_21 + x_3840_5 + x_3840_22 - 2 restored_node_3840_Denver = 0 
fc_3840_Columbus: x_3840_7 + x_3840_23 + x_3840_24 - 2 restored_node_3840_Columbus = 0 
fc_3840_El_Paso: x_3840_21 + x_3840_25 + x_3840_18 + x_3840_26 - 2 restored_node_3840_El_Paso = 0 
fc_3840_Kansas_City: x_3840_22 + x_3840_6 + x_3840_16 + x_3840_27 - 2 restored_node_3840_Kansas_City = 0 
fc_3840_Las_Vegas: x_3840_28 + x_3840_29 + x_3840_30 - 2 restored_node_3840_Las_Vegas = 0 
fc_3840_Los_Angeles: x_3840_31 + x_3840_29 + x_3840_32 - 2 restored_node_3840_Los_Angeles = 0 
fc_3840_Louisville: x_3840_27 + x_3840_33 + x_3840_14 + x_3840_34 + x_3840_24 - 2 restored_node_3840_Louisville = 0 
fc_3840_New_Orleans: x_3840_37 - restored_3840 = 0 
fc_3840_New_York: x_3840_38 + x_3840_9 + x_3840_23 - 2 restored_node_3840_New_York = 0 
fc_3840_Birmingham: x_3840_19 + x_3840_11 + x_3840_15 + x_3840_34 - restored_dc_3840_Birmingham = 0 
fc_3840_Portland: x_3840_39 + x_3840_40 + x_3840_2 - 2 restored_node_3840_Portland = 0 
fc_3840_Salt_Lake_City: x_3840_41 + x_3840_30 + x_3840_42 + x_3840_0 + x_3840_20 - restored_dc_3840_Salt_Lake_City = 0 
fc_3840_San_Antonio: x_3840_17 + x_3840_26 - 2 restored_node_3840_San_Antonio = 0 
fc_3840_San_Francisco: x_3840_40 + x_3840_31 + x_3840_28 + x_3840_41 - 2 restored_node_3840_San_Francisco = 0 
fc_3840_Seattle: x_3840_39 + x_3840_1 - 2 restored_node_3840_Seattle = 0 
fc_3840_Tallahassee: x_3840_37 + x_3840_10 - 2 restored_node_3840_Tallahassee = 0 
fc_3840_Tucson: x_3840_32 + x_3840_42 + x_3840_25 - 2 restored_node_3840_Tucson = 0 
fc_3840_Washington_DC: x_3840_13 + x_3840_38 + x_3840_33 - 2 restored_node_3840_Washington_DC = 0 
fc_2413_Billings: x_2413_0 + x_2413_1 + x_2413_2 + x_2413_3 + x_2413_4 - 2 restored_node_2413_Billings = 0 
fc_2413_Bismarck: x_2413_5 + x_2413_4 + x_2413_6 + x_2413_7 + x_2413_8 - restored_dc_2413_Bismarck = 0 
fc_2413_Ithaca: x_2413_9 + x_2413_8 - 2 restored_node_2413_Ithaca = 0 
fc_2413_Charleston: x_2413_10 + x_2413_11 + x_2413_12 - 2 restored_node_2413_Charleston = 0 
fc_2413_Charlotte: x_2413_12 + x_2413_13 + x_2413_14 + x_2413_15 - 2 restored_node_2413_Charlotte = 0 
fc_2413_Dallas: x_2413_16 + x_2413_17 + x_2413_18 + x_2413_19 - 2 restored_node_2413_Dallas = 0 
fc_2413_Denver: x_2413_3 + x_2413_20 + x_2413_21 + x_2413_5 + x_2413_22 - 2 restored_node_2413_Denver = 0 
fc_2413_Columbus: x_2413_7 + x_2413_23 + x_2413_24 - 2 restored_node_2413_Columbus = 0 
fc_2413_El_Paso: x_2413_21 + x_2413_25 + x_2413_18 + x_2413_26 - 2 restored_node_2413_El_Paso = 0 
fc_2413_Kansas_City: x_2413_22 + x_2413_6 + x_2413_16 + x_2413_27 - 2 restored_node_2413_Kansas_City = 0 
fc_2413_Las_Vegas: x_2413_28 + x_2413_29 + x_2413_30 - 2 restored_node_2413_Las_Vegas = 0 
fc_2413_Los_Angeles: x_2413_31 + x_2413_29 + x_2413_32 - 2 restored_node_2413_Los_Angeles = 0 
fc_2413_Louisville: x_2413_27 + x_2413_33 + x_2413_14 + x_2413_34 + x_2413_24 - 2 restored_node_2413_Louisville = 0 
fc_2413_New_Orleans: x_2413_37 - 2 restored_node_2413_New_Orleans = 0 
fc_2413_New_York: x_2413_38 + x_2413_9 + x_2413_23 - 2 restored_node_2413_New_York = 0 
fc_2413_Birmingham: x_2413_19 + x_2413_11 + x_2413_15 + x_2413_34 - restored_dc_2413_Birmingham = 0 
fc_2413_Portland: x_2413_39 + x_2413_40 + x_2413_2 - 2 restored_node_2413_Portland = 0 
fc_2413_Salt_Lake_City: x_2413_41 + x_2413_30 + x_2413_42 + x_2413_0 + x_2413_20 - restored_dc_2413_Salt_Lake_City = 0 
fc_2413_San_Antonio: x_2413_17 + x_2413_26 - 2 restored_node_2413_San_Antonio = 0 
fc_2413_San_Francisco: x_2413_40 + x_2413_31 + x_2413_28 + x_2413_41 - 2 restored_node_2413_San_Francisco = 0 
fc_2413_Seattle: x_2413_39 + x_2413_1 - 2 restored_node_2413_Seattle = 0 
fc_2413_Tallahassee: x_2413_37 + x_2413_10 - restored_2413 = 0 
fc_2413_Tucson: x_2413_32 + x_2413_42 + x_2413_25 - 2 restored_node_2413_Tucson = 0 
fc_2413_Washington_DC: x_2413_13 + x_2413_38 + x_2413_33 - 2 restored_node_2413_Washington_DC = 0 
fc_3664_Billings: x_3664_0 + x_3664_1 + x_3664_2 + x_3664_3 + x_3664_4 - 2 restored_node_3664_Billings = 0 
fc_3664_Bismarck: x_3664_5 + x_3664_4 + x_3664_6 + x_3664_7 + x_3664_8 - restored_dc_3664_Bismarck = 0 
fc_3664_Ithaca: x_3664_9 + x_3664_8 - 2 restored_node_3664_Ithaca = 0 
fc_3664_Charleston: x_3664_10 + x_3664_11 + x_3664_12 - 2 restored_node_3664_Charleston = 0 
fc_3664_Charlotte: x_3664_12 + x_3664_13 + x_3664_14 + x_3664_15 - 2 restored_node_3664_Charlotte = 0 
fc_3664_Dallas: x_3664_16 + x_3664_17 + x_3664_18 + x_3664_19 - 2 restored_node_3664_Dallas = 0 
fc_3664_Denver: x_3664_3 + x_3664_20 + x_3664_21 + x_3664_5 + x_3664_22 - 2 restored_node_3664_Denver = 0 
fc_3664_Columbus: x_3664_7 + x_3664_23 + x_3664_24 - 2 restored_node_3664_Columbus = 0 
fc_3664_El_Paso: x_3664_21 + x_3664_25 + x_3664_18 + x_3664_26 - 2 restored_node_3664_El_Paso = 0 
fc_3664_Kansas_City: x_3664_22 + x_3664_6 + x_3664_16 + x_3664_27 - 2 restored_node_3664_Kansas_City = 0 
fc_3664_Las_Vegas: x_3664_28 + x_3664_29 + x_3664_30 - 2 restored_node_3664_Las_Vegas = 0 
fc_3664_Los_Angeles: x_3664_31 + x_3664_29 + x_3664_32 - 2 restored_node_3664_Los_Angeles = 0 
fc_3664_Louisville: x_3664_27 + x_3664_33 + x_3664_14 + x_3664_34 + x_3664_24 - 2 restored_node_3664_Louisville = 0 
fc_3664_New_Orleans: x_3664_37 - 2 restored_node_3664_New_Orleans = 0 
fc_3664_New_York: x_3664_38 + x_3664_9 + x_3664_23 - 2 restored_node_3664_New_York = 0 
fc_3664_Birmingham: x_3664_19 + x_3664_11 + x_3664_15 + x_3664_34 - restored_dc_3664_Birmingham = 0 
fc_3664_Portland: x_3664_39 + x_3664_40 + x_3664_2 - 2 restored_node_3664_Portland = 0 
fc_3664_Salt_Lake_City: x_3664_41 + x_3664_30 + x_3664_42 + x_3664_0 + x_3664_20 - restored_dc_3664_Salt_Lake_City = 0 
fc_3664_San_Antonio: x_3664_17 + x_3664_26 - restored_3664 = 0 
fc_3664_San_Francisco: x_3664_40 + x_3664_31 + x_3664_28 + x_3664_41 - 2 restored_node_3664_San_Francisco = 0 
fc_3664_Seattle: x_3664_39 + x_3664_1 - 2 restored_node_3664_Seattle = 0 
fc_3664_Tallahassee: x_3664_37 + x_3664_10 - 2 restored_node_3664_Tallahassee = 0 
fc_3664_Tucson: x_3664_32 + x_3664_42 + x_3664_25 - 2 restored_node_3664_Tucson = 0 
fc_3664_Washington_DC: x_3664_13 + x_3664_38 + x_3664_33 - 2 restored_node_3664_Washington_DC = 0 
fc_4774_Billings: x_4774_0 + x_4774_1 + x_4774_2 + x_4774_3 + x_4774_4 - 2 restored_node_4774_Billings = 0 
fc_4774_Bismarck: x_4774_5 + x_4774_4 + x_4774_6 + x_4774_7 + x_4774_8 - restored_dc_4774_Bismarck = 0 
fc_4774_Ithaca: x_4774_9 + x_4774_8 - 2 restored_node_4774_Ithaca = 0 
fc_4774_Charleston: x_4774_10 + x_4774_11 + x_4774_12 - 2 restored_node_4774_Charleston = 0 
fc_4774_Charlotte: x_4774_12 + x_4774_13 + x_4774_14 + x_4774_15 - 2 restored_node_4774_Charlotte = 0 
fc_4774_Dallas: x_4774_16 + x_4774_17 + x_4774_18 + x_4774_19 - 2 restored_node_4774_Dallas = 0 
fc_4774_Denver: x_4774_3 + x_4774_20 + x_4774_21 + x_4774_5 + x_4774_22 - 2 restored_node_4774_Denver = 0 
fc_4774_Columbus: x_4774_7 + x_4774_23 + x_4774_24 - 2 restored_node_4774_Columbus = 0 
fc_4774_El_Paso: x_4774_21 + x_4774_25 + x_4774_18 + x_4774_26 - 2 restored_node_4774_El_Paso = 0 
fc_4774_Kansas_City: x_4774_22 + x_4774_6 + x_4774_16 + x_4774_27 - 2 restored_node_4774_Kansas_City = 0 
fc_4774_Las_Vegas: x_4774_28 + x_4774_29 + x_4774_30 - 2 restored_node_4774_Las_Vegas = 0 
fc_4774_Los_Angeles: x_4774_31 + x_4774_29 + x_4774_32 - 2 restored_node_4774_Los_Angeles = 0 
fc_4774_Louisville: x_4774_27 + x_4774_33 + x_4774_14 + x_4774_34 + x_4774_24 - 2 restored_node_4774_Louisville = 0 
fc_4774_New_Orleans: x_4774_37 - 2 restored_node_4774_New_Orleans = 0 
fc_4774_New_York: x_4774_38 + x_4774_9 + x_4774_23 - 2 restored_node_4774_New_York = 0 
fc_4774_Birmingham: x_4774_19 + x_4774_11 + x_4774_15 + x_4774_34 - restored_dc_4774_Birmingham = 0 
fc_4774_Portland: x_4774_39 + x_4774_40 + x_4774_2 - 2 restored_node_4774_Portland = 0 
fc_4774_Salt_Lake_City: x_4774_41 + x_4774_30 + x_4774_42 + x_4774_0 + x_4774_20 - restored_dc_4774_Salt_Lake_City = 0 
fc_4774_San_Antonio: x_4774_17 + x_4774_26 - restored_4774 = 0 
fc_4774_San_Francisco: x_4774_40 + x_4774_31 + x_4774_28 + x_4774_41 - 2 restored_node_4774_San_Francisco = 0 
fc_4774_Seattle: x_4774_39 + x_4774_1 - 2 restored_node_4774_Seattle = 0 
fc_4774_Tallahassee: x_4774_37 + x_4774_10 - 2 restored_node_4774_Tallahassee = 0 
fc_4774_Tucson: x_4774_32 + x_4774_42 + x_4774_25 - 2 restored_node_4774_Tucson = 0 
fc_4774_Washington_DC: x_4774_13 + x_4774_38 + x_4774_33 - 2 restored_node_4774_Washington_DC = 0 
fc_3759_Billings: x_3759_0 + x_3759_1 + x_3759_2 + x_3759_3 + x_3759_4 - 2 restored_node_3759_Billings = 0 
fc_3759_Bismarck: x_3759_5 + x_3759_4 + x_3759_6 + x_3759_7 + x_3759_8 - restored_dc_3759_Bismarck = 0 
fc_3759_Ithaca: x_3759_9 + x_3759_8 - 2 restored_node_3759_Ithaca = 0 
fc_3759_Charleston: x_3759_10 + x_3759_11 + x_3759_12 - 2 restored_node_3759_Charleston = 0 
fc_3759_Charlotte: x_3759_12 + x_3759_13 + x_3759_14 + x_3759_15 - 2 restored_node_3759_Charlotte = 0 
fc_3759_Dallas: x_3759_16 + x_3759_17 + x_3759_18 + x_3759_19 - 2 restored_node_3759_Dallas = 0 
fc_3759_Denver: x_3759_3 + x_3759_20 + x_3759_21 + x_3759_5 + x_3759_22 - 2 restored_node_3759_Denver = 0 
fc_3759_Columbus: x_3759_7 + x_3759_23 + x_3759_24 - 2 restored_node_3759_Columbus = 0 
fc_3759_El_Paso: x_3759_21 + x_3759_25 + x_3759_18 + x_3759_26 - 2 restored_node_3759_El_Paso = 0 
fc_3759_Kansas_City: x_3759_22 + x_3759_6 + x_3759_16 + x_3759_27 - 2 restored_node_3759_Kansas_City = 0 
fc_3759_Las_Vegas: x_3759_28 + x_3759_29 + x_3759_30 - 2 restored_node_3759_Las_Vegas = 0 
fc_3759_Los_Angeles: x_3759_31 + x_3759_29 + x_3759_32 - 2 restored_node_3759_Los_Angeles = 0 
fc_3759_Louisville: x_3759_27 + x_3759_33 + x_3759_14 + x_3759_34 + x_3759_24 - 2 restored_node_3759_Louisville = 0 
fc_3759_New_Orleans: x_3759_37 - restored_3759 = 0 
fc_3759_New_York: x_3759_38 + x_3759_9 + x_3759_23 - 2 restored_node_3759_New_York = 0 
fc_3759_Birmingham: x_3759_19 + x_3759_11 + x_3759_15 + x_3759_34 - restored_dc_3759_Birmingham = 0 
fc_3759_Portland: x_3759_39 + x_3759_40 + x_3759_2 - 2 restored_node_3759_Portland = 0 
fc_3759_Salt_Lake_City: x_3759_41 + x_3759_30 + x_3759_42 + x_3759_0 + x_3759_20 - restored_dc_3759_Salt_Lake_City = 0 
fc_3759_San_Antonio: x_3759_17 + x_3759_26 - 2 restored_node_3759_San_Antonio = 0 
fc_3759_San_Francisco: x_3759_40 + x_3759_31 + x_3759_28 + x_3759_41 - 2 restored_node_3759_San_Francisco = 0 
fc_3759_Seattle: x_3759_39 + x_3759_1 - 2 restored_node_3759_Seattle = 0 
fc_3759_Tallahassee: x_3759_37 + x_3759_10 - 2 restored_node_3759_Tallahassee = 0 
fc_3759_Tucson: x_3759_32 + x_3759_42 + x_3759_25 - 2 restored_node_3759_Tucson = 0 
fc_3759_Washington_DC: x_3759_13 + x_3759_38 + x_3759_33 - 2 restored_node_3759_Washington_DC = 0 
fc_3968_Billings: x_3968_0 + x_3968_1 + x_3968_2 + x_3968_3 + x_3968_4 - 2 restored_node_3968_Billings = 0 
fc_3968_Bismarck: x_3968_5 + x_3968_4 + x_3968_6 + x_3968_7 + x_3968_8 - restored_dc_3968_Bismarck = 0 
fc_3968_Ithaca: x_3968_9 + x_3968_8 - 2 restored_node_3968_Ithaca = 0 
fc_3968_Charleston: x_3968_10 + x_3968_11 + x_3968_12 - 2 restored_node_3968_Charleston = 0 
fc_3968_Charlotte: x_3968_12 + x_3968_13 + x_3968_14 + x_3968_15 - 2 restored_node_3968_Charlotte = 0 
fc_3968_Dallas: x_3968_16 + x_3968_17 + x_3968_18 + x_3968_19 - 2 restored_node_3968_Dallas = 0 
fc_3968_Denver: x_3968_3 + x_3968_20 + x_3968_21 + x_3968_5 + x_3968_22 - 2 restored_node_3968_Denver = 0 
fc_3968_Columbus: x_3968_7 + x_3968_23 + x_3968_24 - 2 restored_node_3968_Columbus = 0 
fc_3968_El_Paso: x_3968_21 + x_3968_25 + x_3968_18 + x_3968_26 - 2 restored_node_3968_El_Paso = 0 
fc_3968_Kansas_City: x_3968_22 + x_3968_6 + x_3968_16 + x_3968_27 - 2 restored_node_3968_Kansas_City = 0 
fc_3968_Las_Vegas: x_3968_28 + x_3968_29 + x_3968_30 - 2 restored_node_3968_Las_Vegas = 0 
fc_3968_Los_Angeles: x_3968_31 + x_3968_29 + x_3968_32 - 2 restored_node_3968_Los_Angeles = 0 
fc_3968_Louisville: x_3968_27 + x_3968_33 + x_3968_14 + x_3968_34 + x_3968_24 - 2 restored_node_3968_Louisville = 0 
fc_3968_New_Orleans: x_3968_37 - restored_3968 = 0 
fc_3968_New_York: x_3968_38 + x_3968_9 + x_3968_23 - 2 restored_node_3968_New_York = 0 
fc_3968_Birmingham: x_3968_19 + x_3968_11 + x_3968_15 + x_3968_34 - restored_dc_3968_Birmingham = 0 
fc_3968_Portland: x_3968_39 + x_3968_40 + x_3968_2 - 2 restored_node_3968_Portland = 0 
fc_3968_Salt_Lake_City: x_3968_41 + x_3968_30 + x_3968_42 + x_3968_0 + x_3968_20 - restored_dc_3968_Salt_Lake_City = 0 
fc_3968_San_Antonio: x_3968_17 + x_3968_26 - 2 restored_node_3968_San_Antonio = 0 
fc_3968_San_Francisco: x_3968_40 + x_3968_31 + x_3968_28 + x_3968_41 - 2 restored_node_3968_San_Francisco = 0 
fc_3968_Seattle: x_3968_39 + x_3968_1 - 2 restored_node_3968_Seattle = 0 
fc_3968_Tallahassee: x_3968_37 + x_3968_10 - 2 restored_node_3968_Tallahassee = 0 
fc_3968_Tucson: x_3968_32 + x_3968_42 + x_3968_25 - 2 restored_node_3968_Tucson = 0 
fc_3968_Washington_DC: x_3968_13 + x_3968_38 + x_3968_33 - 2 restored_node_3968_Washington_DC = 0 
fc_4270_Billings: x_4270_0 + x_4270_1 + x_4270_2 + x_4270_3 + x_4270_4 - 2 restored_node_4270_Billings = 0 
fc_4270_Bismarck: x_4270_5 + x_4270_4 + x_4270_6 + x_4270_7 + x_4270_8 - restored_dc_4270_Bismarck = 0 
fc_4270_Ithaca: x_4270_9 + x_4270_8 - 2 restored_node_4270_Ithaca = 0 
fc_4270_Charleston: x_4270_10 + x_4270_11 + x_4270_12 - 2 restored_node_4270_Charleston = 0 
fc_4270_Charlotte: x_4270_12 + x_4270_13 + x_4270_14 + x_4270_15 - 2 restored_node_4270_Charlotte = 0 
fc_4270_Dallas: x_4270_16 + x_4270_17 + x_4270_18 + x_4270_19 - 2 restored_node_4270_Dallas = 0 
fc_4270_Denver: x_4270_3 + x_4270_20 + x_4270_21 + x_4270_5 + x_4270_22 - 2 restored_node_4270_Denver = 0 
fc_4270_Columbus: x_4270_7 + x_4270_23 + x_4270_24 - 2 restored_node_4270_Columbus = 0 
fc_4270_El_Paso: x_4270_21 + x_4270_25 + x_4270_18 + x_4270_26 - 2 restored_node_4270_El_Paso = 0 
fc_4270_Kansas_City: x_4270_22 + x_4270_6 + x_4270_16 + x_4270_27 - 2 restored_node_4270_Kansas_City = 0 
fc_4270_Las_Vegas: x_4270_28 + x_4270_29 + x_4270_30 - 2 restored_node_4270_Las_Vegas = 0 
fc_4270_Los_Angeles: x_4270_31 + x_4270_29 + x_4270_32 - 2 restored_node_4270_Los_Angeles = 0 
fc_4270_Louisville: x_4270_27 + x_4270_33 + x_4270_14 + x_4270_34 + x_4270_24 - 2 restored_node_4270_Louisville = 0 
fc_4270_New_Orleans: x_4270_37 - 2 restored_node_4270_New_Orleans = 0 
fc_4270_New_York: x_4270_38 + x_4270_9 + x_4270_23 - 2 restored_node_4270_New_York = 0 
fc_4270_Birmingham: x_4270_19 + x_4270_11 + x_4270_15 + x_4270_34 - restored_dc_4270_Birmingham = 0 
fc_4270_Portland: x_4270_39 + x_4270_40 + x_4270_2 - 2 restored_node_4270_Portland = 0 
fc_4270_Salt_Lake_City: x_4270_41 + x_4270_30 + x_4270_42 + x_4270_0 + x_4270_20 - restored_dc_4270_Salt_Lake_City = 0 
fc_4270_San_Antonio: x_4270_17 + x_4270_26 - restored_4270 = 0 
fc_4270_San_Francisco: x_4270_40 + x_4270_31 + x_4270_28 + x_4270_41 - 2 restored_node_4270_San_Francisco = 0 
fc_4270_Seattle: x_4270_39 + x_4270_1 - 2 restored_node_4270_Seattle = 0 
fc_4270_Tallahassee: x_4270_37 + x_4270_10 - 2 restored_node_4270_Tallahassee = 0 
fc_4270_Tucson: x_4270_32 + x_4270_42 + x_4270_25 - 2 restored_node_4270_Tucson = 0 
fc_4270_Washington_DC: x_4270_13 + x_4270_38 + x_4270_33 - 2 restored_node_4270_Washington_DC = 0 
fc_4129_Billings: x_4129_0 + x_4129_1 + x_4129_2 + x_4129_3 + x_4129_4 - 2 restored_node_4129_Billings = 0 
fc_4129_Bismarck: x_4129_5 + x_4129_4 + x_4129_6 + x_4129_7 + x_4129_8 - restored_dc_4129_Bismarck = 0 
fc_4129_Ithaca: x_4129_9 + x_4129_8 - 2 restored_node_4129_Ithaca = 0 
fc_4129_Charleston: x_4129_10 + x_4129_11 + x_4129_12 - 2 restored_node_4129_Charleston = 0 
fc_4129_Charlotte: x_4129_12 + x_4129_13 + x_4129_14 + x_4129_15 - 2 restored_node_4129_Charlotte = 0 
fc_4129_Dallas: x_4129_16 + x_4129_17 + x_4129_18 + x_4129_19 - 2 restored_node_4129_Dallas = 0 
fc_4129_Denver: x_4129_3 + x_4129_20 + x_4129_21 + x_4129_5 + x_4129_22 - 2 restored_node_4129_Denver = 0 
fc_4129_Columbus: x_4129_7 + x_4129_23 + x_4129_24 - 2 restored_node_4129_Columbus = 0 
fc_4129_El_Paso: x_4129_21 + x_4129_25 + x_4129_18 + x_4129_26 - 2 restored_node_4129_El_Paso = 0 
fc_4129_Kansas_City: x_4129_22 + x_4129_6 + x_4129_16 + x_4129_27 - 2 restored_node_4129_Kansas_City = 0 
fc_4129_Las_Vegas: x_4129_28 + x_4129_29 + x_4129_30 - 2 restored_node_4129_Las_Vegas = 0 
fc_4129_Los_Angeles: x_4129_31 + x_4129_29 + x_4129_32 - 2 restored_node_4129_Los_Angeles = 0 
fc_4129_Louisville: x_4129_27 + x_4129_33 + x_4129_14 + x_4129_34 + x_4129_24 - 2 restored_node_4129_Louisville = 0 
fc_4129_New_Orleans: x_4129_37 - restored_4129 = 0 
fc_4129_New_York: x_4129_38 + x_4129_9 + x_4129_23 - 2 restored_node_4129_New_York = 0 
fc_4129_Birmingham: x_4129_19 + x_4129_11 + x_4129_15 + x_4129_34 - restored_dc_4129_Birmingham = 0 
fc_4129_Portland: x_4129_39 + x_4129_40 + x_4129_2 - 2 restored_node_4129_Portland = 0 
fc_4129_Salt_Lake_City: x_4129_41 + x_4129_30 + x_4129_42 + x_4129_0 + x_4129_20 - restored_dc_4129_Salt_Lake_City = 0 
fc_4129_San_Antonio: x_4129_17 + x_4129_26 - 2 restored_node_4129_San_Antonio = 0 
fc_4129_San_Francisco: x_4129_40 + x_4129_31 + x_4129_28 + x_4129_41 - 2 restored_node_4129_San_Francisco = 0 
fc_4129_Seattle: x_4129_39 + x_4129_1 - 2 restored_node_4129_Seattle = 0 
fc_4129_Tallahassee: x_4129_37 + x_4129_10 - 2 restored_node_4129_Tallahassee = 0 
fc_4129_Tucson: x_4129_32 + x_4129_42 + x_4129_25 - 2 restored_node_4129_Tucson = 0 
fc_4129_Washington_DC: x_4129_13 + x_4129_38 + x_4129_33 - 2 restored_node_4129_Washington_DC = 0 
fc_4671_Billings: x_4671_0 + x_4671_1 + x_4671_2 + x_4671_3 + x_4671_4 - 2 restored_node_4671_Billings = 0 
fc_4671_Bismarck: x_4671_5 + x_4671_4 + x_4671_6 + x_4671_7 + x_4671_8 - restored_dc_4671_Bismarck = 0 
fc_4671_Ithaca: x_4671_9 + x_4671_8 - 2 restored_node_4671_Ithaca = 0 
fc_4671_Charleston: x_4671_10 + x_4671_11 + x_4671_12 - 2 restored_node_4671_Charleston = 0 
fc_4671_Charlotte: x_4671_12 + x_4671_13 + x_4671_14 + x_4671_15 - 2 restored_node_4671_Charlotte = 0 
fc_4671_Dallas: x_4671_16 + x_4671_17 + x_4671_18 + x_4671_19 - 2 restored_node_4671_Dallas = 0 
fc_4671_Denver: x_4671_3 + x_4671_20 + x_4671_21 + x_4671_5 + x_4671_22 - 2 restored_node_4671_Denver = 0 
fc_4671_Columbus: x_4671_7 + x_4671_23 + x_4671_24 - 2 restored_node_4671_Columbus = 0 
fc_4671_El_Paso: x_4671_21 + x_4671_25 + x_4671_18 + x_4671_26 - 2 restored_node_4671_El_Paso = 0 
fc_4671_Kansas_City: x_4671_22 + x_4671_6 + x_4671_16 + x_4671_27 - 2 restored_node_4671_Kansas_City = 0 
fc_4671_Las_Vegas: x_4671_28 + x_4671_29 + x_4671_30 - 2 restored_node_4671_Las_Vegas = 0 
fc_4671_Los_Angeles: x_4671_31 + x_4671_29 + x_4671_32 - 2 restored_node_4671_Los_Angeles = 0 
fc_4671_Louisville: x_4671_27 + x_4671_33 + x_4671_14 + x_4671_34 + x_4671_24 - 2 restored_node_4671_Louisville = 0 
fc_4671_New_Orleans: x_4671_37 - 2 restored_node_4671_New_Orleans = 0 
fc_4671_New_York: x_4671_38 + x_4671_9 + x_4671_23 - 2 restored_node_4671_New_York = 0 
fc_4671_Birmingham: x_4671_19 + x_4671_11 + x_4671_15 + x_4671_34 - restored_dc_4671_Birmingham = 0 
fc_4671_Portland: x_4671_39 + x_4671_40 + x_4671_2 - 2 restored_node_4671_Portland = 0 
fc_4671_Salt_Lake_City: x_4671_41 + x_4671_30 + x_4671_42 + x_4671_0 + x_4671_20 - restored_dc_4671_Salt_Lake_City = 0 
fc_4671_San_Antonio: x_4671_17 + x_4671_26 - restored_4671 = 0 
fc_4671_San_Francisco: x_4671_40 + x_4671_31 + x_4671_28 + x_4671_41 - 2 restored_node_4671_San_Francisco = 0 
fc_4671_Seattle: x_4671_39 + x_4671_1 - 2 restored_node_4671_Seattle = 0 
fc_4671_Tallahassee: x_4671_37 + x_4671_10 - 2 restored_node_4671_Tallahassee = 0 
fc_4671_Tucson: x_4671_32 + x_4671_42 + x_4671_25 - 2 restored_node_4671_Tucson = 0 
fc_4671_Washington_DC: x_4671_13 + x_4671_38 + x_4671_33 - 2 restored_node_4671_Washington_DC = 0 
fc_4152_Billings: x_4152_0 + x_4152_1 + x_4152_2 + x_4152_3 + x_4152_4 - 2 restored_node_4152_Billings = 0 
fc_4152_Bismarck: x_4152_5 + x_4152_4 + x_4152_6 + x_4152_7 + x_4152_8 - restored_dc_4152_Bismarck = 0 
fc_4152_Ithaca: x_4152_9 + x_4152_8 - 2 restored_node_4152_Ithaca = 0 
fc_4152_Charleston: x_4152_10 + x_4152_11 + x_4152_12 - 2 restored_node_4152_Charleston = 0 
fc_4152_Charlotte: x_4152_12 + x_4152_13 + x_4152_14 + x_4152_15 - 2 restored_node_4152_Charlotte = 0 
fc_4152_Dallas: x_4152_16 + x_4152_17 + x_4152_18 + x_4152_19 - 2 restored_node_4152_Dallas = 0 
fc_4152_Denver: x_4152_3 + x_4152_20 + x_4152_21 + x_4152_5 + x_4152_22 - 2 restored_node_4152_Denver = 0 
fc_4152_Columbus: x_4152_7 + x_4152_23 + x_4152_24 - 2 restored_node_4152_Columbus = 0 
fc_4152_El_Paso: x_4152_21 + x_4152_25 + x_4152_18 + x_4152_26 - 2 restored_node_4152_El_Paso = 0 
fc_4152_Kansas_City: x_4152_22 + x_4152_6 + x_4152_16 + x_4152_27 - 2 restored_node_4152_Kansas_City = 0 
fc_4152_Las_Vegas: x_4152_28 + x_4152_29 + x_4152_30 - 2 restored_node_4152_Las_Vegas = 0 
fc_4152_Los_Angeles: x_4152_31 + x_4152_29 + x_4152_32 - 2 restored_node_4152_Los_Angeles = 0 
fc_4152_Louisville: x_4152_27 + x_4152_33 + x_4152_14 + x_4152_34 + x_4152_24 - 2 restored_node_4152_Louisville = 0 
fc_4152_New_Orleans: x_4152_37 - restored_4152 = 0 
fc_4152_New_York: x_4152_38 + x_4152_9 + x_4152_23 - 2 restored_node_4152_New_York = 0 
fc_4152_Birmingham: x_4152_19 + x_4152_11 + x_4152_15 + x_4152_34 - restored_dc_4152_Birmingham = 0 
fc_4152_Portland: x_4152_39 + x_4152_40 + x_4152_2 - 2 restored_node_4152_Portland = 0 
fc_4152_Salt_Lake_City: x_4152_41 + x_4152_30 + x_4152_42 + x_4152_0 + x_4152_20 - restored_dc_4152_Salt_Lake_City = 0 
fc_4152_San_Antonio: x_4152_17 + x_4152_26 - 2 restored_node_4152_San_Antonio = 0 
fc_4152_San_Francisco: x_4152_40 + x_4152_31 + x_4152_28 + x_4152_41 - 2 restored_node_4152_San_Francisco = 0 
fc_4152_Seattle: x_4152_39 + x_4152_1 - 2 restored_node_4152_Seattle = 0 
fc_4152_Tallahassee: x_4152_37 + x_4152_10 - 2 restored_node_4152_Tallahassee = 0 
fc_4152_Tucson: x_4152_32 + x_4152_42 + x_4152_25 - 2 restored_node_4152_Tucson = 0 
fc_4152_Washington_DC: x_4152_13 + x_4152_38 + x_4152_33 - 2 restored_node_4152_Washington_DC = 0 
fc_4379_Billings: x_4379_0 + x_4379_1 + x_4379_2 + x_4379_3 + x_4379_4 - 2 restored_node_4379_Billings = 0 
fc_4379_Bismarck: x_4379_5 + x_4379_4 + x_4379_6 + x_4379_7 + x_4379_8 - restored_dc_4379_Bismarck = 0 
fc_4379_Ithaca: x_4379_9 + x_4379_8 - 2 restored_node_4379_Ithaca = 0 
fc_4379_Charleston: x_4379_10 + x_4379_11 + x_4379_12 - 2 restored_node_4379_Charleston = 0 
fc_4379_Charlotte: x_4379_12 + x_4379_13 + x_4379_14 + x_4379_15 - 2 restored_node_4379_Charlotte = 0 
fc_4379_Dallas: x_4379_16 + x_4379_17 + x_4379_18 + x_4379_19 - 2 restored_node_4379_Dallas = 0 
fc_4379_Denver: x_4379_3 + x_4379_20 + x_4379_21 + x_4379_5 + x_4379_22 - 2 restored_node_4379_Denver = 0 
fc_4379_Columbus: x_4379_7 + x_4379_23 + x_4379_24 - 2 restored_node_4379_Columbus = 0 
fc_4379_El_Paso: x_4379_21 + x_4379_25 + x_4379_18 + x_4379_26 - 2 restored_node_4379_El_Paso = 0 
fc_4379_Kansas_City: x_4379_22 + x_4379_6 + x_4379_16 + x_4379_27 - 2 restored_node_4379_Kansas_City = 0 
fc_4379_Las_Vegas: x_4379_28 + x_4379_29 + x_4379_30 - 2 restored_node_4379_Las_Vegas = 0 
fc_4379_Los_Angeles: x_4379_31 + x_4379_29 + x_4379_32 - 2 restored_node_4379_Los_Angeles = 0 
fc_4379_Louisville: x_4379_27 + x_4379_33 + x_4379_14 + x_4379_34 + x_4379_24 - 2 restored_node_4379_Louisville = 0 
fc_4379_New_Orleans: x_4379_37 - restored_4379 = 0 
fc_4379_New_York: x_4379_38 + x_4379_9 + x_4379_23 - 2 restored_node_4379_New_York = 0 
fc_4379_Birmingham: x_4379_19 + x_4379_11 + x_4379_15 + x_4379_34 - restored_dc_4379_Birmingham = 0 
fc_4379_Portland: x_4379_39 + x_4379_40 + x_4379_2 - 2 restored_node_4379_Portland = 0 
fc_4379_Salt_Lake_City: x_4379_41 + x_4379_30 + x_4379_42 + x_4379_0 + x_4379_20 - restored_dc_4379_Salt_Lake_City = 0 
fc_4379_San_Antonio: x_4379_17 + x_4379_26 - 2 restored_node_4379_San_Antonio = 0 
fc_4379_San_Francisco: x_4379_40 + x_4379_31 + x_4379_28 + x_4379_41 - 2 restored_node_4379_San_Francisco = 0 
fc_4379_Seattle: x_4379_39 + x_4379_1 - 2 restored_node_4379_Seattle = 0 
fc_4379_Tallahassee: x_4379_37 + x_4379_10 - 2 restored_node_4379_Tallahassee = 0 
fc_4379_Tucson: x_4379_32 + x_4379_42 + x_4379_25 - 2 restored_node_4379_Tucson = 0 
fc_4379_Washington_DC: x_4379_13 + x_4379_38 + x_4379_33 - 2 restored_node_4379_Washington_DC = 0 
fc_4812_Billings: x_4812_0 + x_4812_1 + x_4812_2 + x_4812_3 + x_4812_4 - 2 restored_node_4812_Billings = 0 
fc_4812_Bismarck: x_4812_5 + x_4812_4 + x_4812_6 + x_4812_7 + x_4812_8 - restored_dc_4812_Bismarck = 0 
fc_4812_Ithaca: x_4812_9 + x_4812_8 - 2 restored_node_4812_Ithaca = 0 
fc_4812_Charleston: x_4812_10 + x_4812_11 + x_4812_12 - 2 restored_node_4812_Charleston = 0 
fc_4812_Charlotte: x_4812_12 + x_4812_13 + x_4812_14 + x_4812_15 - 2 restored_node_4812_Charlotte = 0 
fc_4812_Dallas: x_4812_16 + x_4812_17 + x_4812_18 + x_4812_19 - 2 restored_node_4812_Dallas = 0 
fc_4812_Denver: x_4812_3 + x_4812_20 + x_4812_21 + x_4812_5 + x_4812_22 - 2 restored_node_4812_Denver = 0 
fc_4812_Columbus: x_4812_7 + x_4812_23 + x_4812_24 - 2 restored_node_4812_Columbus = 0 
fc_4812_El_Paso: x_4812_21 + x_4812_25 + x_4812_18 + x_4812_26 - 2 restored_node_4812_El_Paso = 0 
fc_4812_Kansas_City: x_4812_22 + x_4812_6 + x_4812_16 + x_4812_27 - 2 restored_node_4812_Kansas_City = 0 
fc_4812_Las_Vegas: x_4812_28 + x_4812_29 + x_4812_30 - 2 restored_node_4812_Las_Vegas = 0 
fc_4812_Los_Angeles: x_4812_31 + x_4812_29 + x_4812_32 - 2 restored_node_4812_Los_Angeles = 0 
fc_4812_Louisville: x_4812_27 + x_4812_33 + x_4812_14 + x_4812_34 + x_4812_24 - 2 restored_node_4812_Louisville = 0 
fc_4812_New_Orleans: x_4812_37 - restored_4812 = 0 
fc_4812_New_York: x_4812_38 + x_4812_9 + x_4812_23 - 2 restored_node_4812_New_York = 0 
fc_4812_Birmingham: x_4812_19 + x_4812_11 + x_4812_15 + x_4812_34 - restored_dc_4812_Birmingham = 0 
fc_4812_Portland: x_4812_39 + x_4812_40 + x_4812_2 - 2 restored_node_4812_Portland = 0 
fc_4812_Salt_Lake_City: x_4812_41 + x_4812_30 + x_4812_42 + x_4812_0 + x_4812_20 - restored_dc_4812_Salt_Lake_City = 0 
fc_4812_San_Antonio: x_4812_17 + x_4812_26 - 2 restored_node_4812_San_Antonio = 0 
fc_4812_San_Francisco: x_4812_40 + x_4812_31 + x_4812_28 + x_4812_41 - 2 restored_node_4812_San_Francisco = 0 
fc_4812_Seattle: x_4812_39 + x_4812_1 - 2 restored_node_4812_Seattle = 0 
fc_4812_Tallahassee: x_4812_37 + x_4812_10 - 2 restored_node_4812_Tallahassee = 0 
fc_4812_Tucson: x_4812_32 + x_4812_42 + x_4812_25 - 2 restored_node_4812_Tucson = 0 
fc_4812_Washington_DC: x_4812_13 + x_4812_38 + x_4812_33 - 2 restored_node_4812_Washington_DC = 0 
fc_4513_Billings: x_4513_0 + x_4513_1 + x_4513_2 + x_4513_3 + x_4513_4 - 2 restored_node_4513_Billings = 0 
fc_4513_Bismarck: x_4513_5 + x_4513_4 + x_4513_6 + x_4513_7 + x_4513_8 - restored_dc_4513_Bismarck = 0 
fc_4513_Ithaca: x_4513_9 + x_4513_8 - 2 restored_node_4513_Ithaca = 0 
fc_4513_Charleston: x_4513_10 + x_4513_11 + x_4513_12 - 2 restored_node_4513_Charleston = 0 
fc_4513_Charlotte: x_4513_12 + x_4513_13 + x_4513_14 + x_4513_15 - 2 restored_node_4513_Charlotte = 0 
fc_4513_Dallas: x_4513_16 + x_4513_17 + x_4513_18 + x_4513_19 - 2 restored_node_4513_Dallas = 0 
fc_4513_Denver: x_4513_3 + x_4513_20 + x_4513_21 + x_4513_5 + x_4513_22 - 2 restored_node_4513_Denver = 0 
fc_4513_Columbus: x_4513_7 + x_4513_23 + x_4513_24 - 2 restored_node_4513_Columbus = 0 
fc_4513_El_Paso: x_4513_21 + x_4513_25 + x_4513_18 + x_4513_26 - 2 restored_node_4513_El_Paso = 0 
fc_4513_Kansas_City: x_4513_22 + x_4513_6 + x_4513_16 + x_4513_27 - 2 restored_node_4513_Kansas_City = 0 
fc_4513_Las_Vegas: x_4513_28 + x_4513_29 + x_4513_30 - 2 restored_node_4513_Las_Vegas = 0 
fc_4513_Los_Angeles: x_4513_31 + x_4513_29 + x_4513_32 - 2 restored_node_4513_Los_Angeles = 0 
fc_4513_Louisville: x_4513_27 + x_4513_33 + x_4513_14 + x_4513_34 + x_4513_24 - 2 restored_node_4513_Louisville = 0 
fc_4513_New_Orleans: x_4513_37 - 2 restored_node_4513_New_Orleans = 0 
fc_4513_New_York: x_4513_38 + x_4513_9 + x_4513_23 - 2 restored_node_4513_New_York = 0 
fc_4513_Birmingham: x_4513_19 + x_4513_11 + x_4513_15 + x_4513_34 - restored_dc_4513_Birmingham = 0 
fc_4513_Portland: x_4513_39 + x_4513_40 + x_4513_2 - 2 restored_node_4513_Portland = 0 
fc_4513_Salt_Lake_City: x_4513_41 + x_4513_30 + x_4513_42 + x_4513_0 + x_4513_20 - restored_dc_4513_Salt_Lake_City = 0 
fc_4513_San_Antonio: x_4513_17 + x_4513_26 - 2 restored_node_4513_San_Antonio = 0 
fc_4513_San_Francisco: x_4513_40 + x_4513_31 + x_4513_28 + x_4513_41 - 2 restored_node_4513_San_Francisco = 0 
fc_4513_Seattle: x_4513_39 + x_4513_1 - 2 restored_node_4513_Seattle = 0 
fc_4513_Tallahassee: x_4513_37 + x_4513_10 - restored_4513 = 0 
fc_4513_Tucson: x_4513_32 + x_4513_42 + x_4513_25 - 2 restored_node_4513_Tucson = 0 
fc_4513_Washington_DC: x_4513_13 + x_4513_38 + x_4513_33 - 2 restored_node_4513_Washington_DC = 0 
fc_4584_Billings: x_4584_0 + x_4584_1 + x_4584_2 + x_4584_3 + x_4584_4 - 2 restored_node_4584_Billings = 0 
fc_4584_Bismarck: x_4584_5 + x_4584_4 + x_4584_6 + x_4584_7 + x_4584_8 - restored_dc_4584_Bismarck = 0 
fc_4584_Ithaca: x_4584_9 + x_4584_8 - 2 restored_node_4584_Ithaca = 0 
fc_4584_Charleston: x_4584_10 + x_4584_11 + x_4584_12 - 2 restored_node_4584_Charleston = 0 
fc_4584_Charlotte: x_4584_12 + x_4584_13 + x_4584_14 + x_4584_15 - 2 restored_node_4584_Charlotte = 0 
fc_4584_Dallas: x_4584_16 + x_4584_17 + x_4584_18 + x_4584_19 - 2 restored_node_4584_Dallas = 0 
fc_4584_Denver: x_4584_3 + x_4584_20 + x_4584_21 + x_4584_5 + x_4584_22 - 2 restored_node_4584_Denver = 0 
fc_4584_Columbus: x_4584_7 + x_4584_23 + x_4584_24 - 2 restored_node_4584_Columbus = 0 
fc_4584_El_Paso: x_4584_21 + x_4584_25 + x_4584_18 + x_4584_26 - 2 restored_node_4584_El_Paso = 0 
fc_4584_Kansas_City: x_4584_22 + x_4584_6 + x_4584_16 + x_4584_27 - 2 restored_node_4584_Kansas_City = 0 
fc_4584_Las_Vegas: x_4584_28 + x_4584_29 + x_4584_30 - 2 restored_node_4584_Las_Vegas = 0 
fc_4584_Los_Angeles: x_4584_31 + x_4584_29 + x_4584_32 - 2 restored_node_4584_Los_Angeles = 0 
fc_4584_Louisville: x_4584_27 + x_4584_33 + x_4584_14 + x_4584_34 + x_4584_24 - 2 restored_node_4584_Louisville = 0 
fc_4584_New_Orleans: x_4584_37 - 2 restored_node_4584_New_Orleans = 0 
fc_4584_New_York: x_4584_38 + x_4584_9 + x_4584_23 - 2 restored_node_4584_New_York = 0 
fc_4584_Birmingham: x_4584_19 + x_4584_11 + x_4584_15 + x_4584_34 - restored_dc_4584_Birmingham = 0 
fc_4584_Portland: x_4584_39 + x_4584_40 + x_4584_2 - 2 restored_node_4584_Portland = 0 
fc_4584_Salt_Lake_City: x_4584_41 + x_4584_30 + x_4584_42 + x_4584_0 + x_4584_20 - restored_dc_4584_Salt_Lake_City = 0 
fc_4584_San_Antonio: x_4584_17 + x_4584_26 - restored_4584 = 0 
fc_4584_San_Francisco: x_4584_40 + x_4584_31 + x_4584_28 + x_4584_41 - 2 restored_node_4584_San_Francisco = 0 
fc_4584_Seattle: x_4584_39 + x_4584_1 - 2 restored_node_4584_Seattle = 0 
fc_4584_Tallahassee: x_4584_37 + x_4584_10 - 2 restored_node_4584_Tallahassee = 0 
fc_4584_Tucson: x_4584_32 + x_4584_42 + x_4584_25 - 2 restored_node_4584_Tucson = 0 
fc_4584_Washington_DC: x_4584_13 + x_4584_38 + x_4584_33 - 2 restored_node_4584_Washington_DC = 0 
fc_4585_Billings: x_4585_0 + x_4585_1 + x_4585_2 + x_4585_3 + x_4585_4 - 2 restored_node_4585_Billings = 0 
fc_4585_Bismarck: x_4585_5 + x_4585_4 + x_4585_6 + x_4585_7 + x_4585_8 - restored_dc_4585_Bismarck = 0 
fc_4585_Ithaca: x_4585_9 + x_4585_8 - 2 restored_node_4585_Ithaca = 0 
fc_4585_Charleston: x_4585_10 + x_4585_11 + x_4585_12 - 2 restored_node_4585_Charleston = 0 
fc_4585_Charlotte: x_4585_12 + x_4585_13 + x_4585_14 + x_4585_15 - 2 restored_node_4585_Charlotte = 0 
fc_4585_Dallas: x_4585_16 + x_4585_17 + x_4585_18 + x_4585_19 - 2 restored_node_4585_Dallas = 0 
fc_4585_Denver: x_4585_3 + x_4585_20 + x_4585_21 + x_4585_5 + x_4585_22 - 2 restored_node_4585_Denver = 0 
fc_4585_Columbus: x_4585_7 + x_4585_23 + x_4585_24 - 2 restored_node_4585_Columbus = 0 
fc_4585_El_Paso: x_4585_21 + x_4585_25 + x_4585_18 + x_4585_26 - 2 restored_node_4585_El_Paso = 0 
fc_4585_Kansas_City: x_4585_22 + x_4585_6 + x_4585_16 + x_4585_27 - 2 restored_node_4585_Kansas_City = 0 
fc_4585_Las_Vegas: x_4585_28 + x_4585_29 + x_4585_30 - 2 restored_node_4585_Las_Vegas = 0 
fc_4585_Los_Angeles: x_4585_31 + x_4585_29 + x_4585_32 - 2 restored_node_4585_Los_Angeles = 0 
fc_4585_Louisville: x_4585_27 + x_4585_33 + x_4585_14 + x_4585_34 + x_4585_24 - 2 restored_node_4585_Louisville = 0 
fc_4585_New_Orleans: x_4585_37 - restored_4585 = 0 
fc_4585_New_York: x_4585_38 + x_4585_9 + x_4585_23 - 2 restored_node_4585_New_York = 0 
fc_4585_Birmingham: x_4585_19 + x_4585_11 + x_4585_15 + x_4585_34 - restored_dc_4585_Birmingham = 0 
fc_4585_Portland: x_4585_39 + x_4585_40 + x_4585_2 - 2 restored_node_4585_Portland = 0 
fc_4585_Salt_Lake_City: x_4585_41 + x_4585_30 + x_4585_42 + x_4585_0 + x_4585_20 - restored_dc_4585_Salt_Lake_City = 0 
fc_4585_San_Antonio: x_4585_17 + x_4585_26 - 2 restored_node_4585_San_Antonio = 0 
fc_4585_San_Francisco: x_4585_40 + x_4585_31 + x_4585_28 + x_4585_41 - 2 restored_node_4585_San_Francisco = 0 
fc_4585_Seattle: x_4585_39 + x_4585_1 - 2 restored_node_4585_Seattle = 0 
fc_4585_Tallahassee: x_4585_37 + x_4585_10 - 2 restored_node_4585_Tallahassee = 0 
fc_4585_Tucson: x_4585_32 + x_4585_42 + x_4585_25 - 2 restored_node_4585_Tucson = 0 
fc_4585_Washington_DC: x_4585_13 + x_4585_38 + x_4585_33 - 2 restored_node_4585_Washington_DC = 0 
fc_4212_Billings: x_4212_0 + x_4212_1 + x_4212_2 + x_4212_3 + x_4212_4 - 2 restored_node_4212_Billings = 0 
fc_4212_Bismarck: x_4212_5 + x_4212_4 + x_4212_6 + x_4212_7 + x_4212_8 - restored_dc_4212_Bismarck = 0 
fc_4212_Ithaca: x_4212_9 + x_4212_8 - 2 restored_node_4212_Ithaca = 0 
fc_4212_Charleston: x_4212_10 + x_4212_11 + x_4212_12 - 2 restored_node_4212_Charleston = 0 
fc_4212_Charlotte: x_4212_12 + x_4212_13 + x_4212_14 + x_4212_15 - 2 restored_node_4212_Charlotte = 0 
fc_4212_Dallas: x_4212_16 + x_4212_17 + x_4212_18 + x_4212_19 - 2 restored_node_4212_Dallas = 0 
fc_4212_Denver: x_4212_3 + x_4212_20 + x_4212_21 + x_4212_5 + x_4212_22 - 2 restored_node_4212_Denver = 0 
fc_4212_Columbus: x_4212_7 + x_4212_23 + x_4212_24 - 2 restored_node_4212_Columbus = 0 
fc_4212_El_Paso: x_4212_21 + x_4212_25 + x_4212_18 + x_4212_26 - 2 restored_node_4212_El_Paso = 0 
fc_4212_Kansas_City: x_4212_22 + x_4212_6 + x_4212_16 + x_4212_27 - 2 restored_node_4212_Kansas_City = 0 
fc_4212_Las_Vegas: x_4212_28 + x_4212_29 + x_4212_30 - 2 restored_node_4212_Las_Vegas = 0 
fc_4212_Los_Angeles: x_4212_31 + x_4212_29 + x_4212_32 - 2 restored_node_4212_Los_Angeles = 0 
fc_4212_Louisville: x_4212_27 + x_4212_33 + x_4212_14 + x_4212_34 + x_4212_24 - 2 restored_node_4212_Louisville = 0 
fc_4212_New_Orleans: x_4212_37 - restored_4212 = 0 
fc_4212_New_York: x_4212_38 + x_4212_9 + x_4212_23 - 2 restored_node_4212_New_York = 0 
fc_4212_Birmingham: x_4212_19 + x_4212_11 + x_4212_15 + x_4212_34 - restored_dc_4212_Birmingham = 0 
fc_4212_Portland: x_4212_39 + x_4212_40 + x_4212_2 - 2 restored_node_4212_Portland = 0 
fc_4212_Salt_Lake_City: x_4212_41 + x_4212_30 + x_4212_42 + x_4212_0 + x_4212_20 - restored_dc_4212_Salt_Lake_City = 0 
fc_4212_San_Antonio: x_4212_17 + x_4212_26 - 2 restored_node_4212_San_Antonio = 0 
fc_4212_San_Francisco: x_4212_40 + x_4212_31 + x_4212_28 + x_4212_41 - 2 restored_node_4212_San_Francisco = 0 
fc_4212_Seattle: x_4212_39 + x_4212_1 - 2 restored_node_4212_Seattle = 0 
fc_4212_Tallahassee: x_4212_37 + x_4212_10 - 2 restored_node_4212_Tallahassee = 0 
fc_4212_Tucson: x_4212_32 + x_4212_42 + x_4212_25 - 2 restored_node_4212_Tucson = 0 
fc_4212_Washington_DC: x_4212_13 + x_4212_38 + x_4212_33 - 2 restored_node_4212_Washington_DC = 0 
fc_4272_Billings: x_4272_0 + x_4272_1 + x_4272_2 + x_4272_3 + x_4272_4 - 2 restored_node_4272_Billings = 0 
fc_4272_Bismarck: x_4272_5 + x_4272_4 + x_4272_6 + x_4272_7 + x_4272_8 - restored_dc_4272_Bismarck = 0 
fc_4272_Ithaca: x_4272_9 + x_4272_8 - 2 restored_node_4272_Ithaca = 0 
fc_4272_Charleston: x_4272_10 + x_4272_11 + x_4272_12 - 2 restored_node_4272_Charleston = 0 
fc_4272_Charlotte: x_4272_12 + x_4272_13 + x_4272_14 + x_4272_15 - 2 restored_node_4272_Charlotte = 0 
fc_4272_Dallas: x_4272_16 + x_4272_17 + x_4272_18 + x_4272_19 - 2 restored_node_4272_Dallas = 0 
fc_4272_Denver: x_4272_3 + x_4272_20 + x_4272_21 + x_4272_5 + x_4272_22 - 2 restored_node_4272_Denver = 0 
fc_4272_Columbus: x_4272_7 + x_4272_23 + x_4272_24 - 2 restored_node_4272_Columbus = 0 
fc_4272_El_Paso: x_4272_21 + x_4272_25 + x_4272_18 + x_4272_26 - 2 restored_node_4272_El_Paso = 0 
fc_4272_Kansas_City: x_4272_22 + x_4272_6 + x_4272_16 + x_4272_27 - 2 restored_node_4272_Kansas_City = 0 
fc_4272_Las_Vegas: x_4272_28 + x_4272_29 + x_4272_30 - 2 restored_node_4272_Las_Vegas = 0 
fc_4272_Los_Angeles: x_4272_31 + x_4272_29 + x_4272_32 - 2 restored_node_4272_Los_Angeles = 0 
fc_4272_Louisville: x_4272_27 + x_4272_33 + x_4272_14 + x_4272_34 + x_4272_24 - 2 restored_node_4272_Louisville = 0 
fc_4272_New_Orleans: x_4272_37 - restored_4272 = 0 
fc_4272_New_York: x_4272_38 + x_4272_9 + x_4272_23 - 2 restored_node_4272_New_York = 0 
fc_4272_Birmingham: x_4272_19 + x_4272_11 + x_4272_15 + x_4272_34 - restored_dc_4272_Birmingham = 0 
fc_4272_Portland: x_4272_39 + x_4272_40 + x_4272_2 - 2 restored_node_4272_Portland = 0 
fc_4272_Salt_Lake_City: x_4272_41 + x_4272_30 + x_4272_42 + x_4272_0 + x_4272_20 - restored_dc_4272_Salt_Lake_City = 0 
fc_4272_San_Antonio: x_4272_17 + x_4272_26 - 2 restored_node_4272_San_Antonio = 0 
fc_4272_San_Francisco: x_4272_40 + x_4272_31 + x_4272_28 + x_4272_41 - 2 restored_node_4272_San_Francisco = 0 
fc_4272_Seattle: x_4272_39 + x_4272_1 - 2 restored_node_4272_Seattle = 0 
fc_4272_Tallahassee: x_4272_37 + x_4272_10 - 2 restored_node_4272_Tallahassee = 0 
fc_4272_Tucson: x_4272_32 + x_4272_42 + x_4272_25 - 2 restored_node_4272_Tucson = 0 
fc_4272_Washington_DC: x_4272_13 + x_4272_38 + x_4272_33 - 2 restored_node_4272_Washington_DC = 0 
fc_4144_Billings: x_4144_0 + x_4144_1 + x_4144_2 + x_4144_3 + x_4144_4 - 2 restored_node_4144_Billings = 0 
fc_4144_Bismarck: x_4144_5 + x_4144_4 + x_4144_6 + x_4144_7 + x_4144_8 - restored_dc_4144_Bismarck = 0 
fc_4144_Ithaca: x_4144_9 + x_4144_8 - 2 restored_node_4144_Ithaca = 0 
fc_4144_Charleston: x_4144_10 + x_4144_11 + x_4144_12 - 2 restored_node_4144_Charleston = 0 
fc_4144_Charlotte: x_4144_12 + x_4144_13 + x_4144_14 + x_4144_15 - 2 restored_node_4144_Charlotte = 0 
fc_4144_Dallas: x_4144_16 + x_4144_17 + x_4144_18 + x_4144_19 - 2 restored_node_4144_Dallas = 0 
fc_4144_Denver: x_4144_3 + x_4144_20 + x_4144_21 + x_4144_5 + x_4144_22 - 2 restored_node_4144_Denver = 0 
fc_4144_Columbus: x_4144_7 + x_4144_23 + x_4144_24 - 2 restored_node_4144_Columbus = 0 
fc_4144_El_Paso: x_4144_21 + x_4144_25 + x_4144_18 + x_4144_26 - 2 restored_node_4144_El_Paso = 0 
fc_4144_Kansas_City: x_4144_22 + x_4144_6 + x_4144_16 + x_4144_27 - 2 restored_node_4144_Kansas_City = 0 
fc_4144_Las_Vegas: x_4144_28 + x_4144_29 + x_4144_30 - 2 restored_node_4144_Las_Vegas = 0 
fc_4144_Los_Angeles: x_4144_31 + x_4144_29 + x_4144_32 - 2 restored_node_4144_Los_Angeles = 0 
fc_4144_Louisville: x_4144_27 + x_4144_33 + x_4144_14 + x_4144_34 + x_4144_24 - 2 restored_node_4144_Louisville = 0 
fc_4144_New_Orleans: x_4144_37 - 2 restored_node_4144_New_Orleans = 0 
fc_4144_New_York: x_4144_38 + x_4144_9 + x_4144_23 - 2 restored_node_4144_New_York = 0 
fc_4144_Birmingham: x_4144_19 + x_4144_11 + x_4144_15 + x_4144_34 - restored_dc_4144_Birmingham = 0 
fc_4144_Portland: x_4144_39 + x_4144_40 + x_4144_2 - 2 restored_node_4144_Portland = 0 
fc_4144_Salt_Lake_City: x_4144_41 + x_4144_30 + x_4144_42 + x_4144_0 + x_4144_20 - restored_dc_4144_Salt_Lake_City = 0 
fc_4144_San_Antonio: x_4144_17 + x_4144_26 - 2 restored_node_4144_San_Antonio = 0 
fc_4144_San_Francisco: x_4144_40 + x_4144_31 + x_4144_28 + x_4144_41 - 2 restored_node_4144_San_Francisco = 0 
fc_4144_Seattle: x_4144_39 + x_4144_1 - 2 restored_node_4144_Seattle = 0 
fc_4144_Tallahassee: x_4144_37 + x_4144_10 - restored_4144 = 0 
fc_4144_Tucson: x_4144_32 + x_4144_42 + x_4144_25 - 2 restored_node_4144_Tucson = 0 
fc_4144_Washington_DC: x_4144_13 + x_4144_38 + x_4144_33 - 2 restored_node_4144_Washington_DC = 0 
fc_3572_Billings: x_3572_0 + x_3572_1 + x_3572_2 + x_3572_3 + x_3572_4 - 2 restored_node_3572_Billings = 0 
fc_3572_Bismarck: x_3572_5 + x_3572_4 + x_3572_6 + x_3572_7 + x_3572_8 - restored_dc_3572_Bismarck = 0 
fc_3572_Ithaca: x_3572_9 + x_3572_8 - 2 restored_node_3572_Ithaca = 0 
fc_3572_Charleston: x_3572_10 + x_3572_11 + x_3572_12 - 2 restored_node_3572_Charleston = 0 
fc_3572_Charlotte: x_3572_12 + x_3572_13 + x_3572_14 + x_3572_15 - 2 restored_node_3572_Charlotte = 0 
fc_3572_Dallas: x_3572_16 + x_3572_17 + x_3572_18 + x_3572_19 - 2 restored_node_3572_Dallas = 0 
fc_3572_Denver: x_3572_3 + x_3572_20 + x_3572_21 + x_3572_5 + x_3572_22 - 2 restored_node_3572_Denver = 0 
fc_3572_Columbus: x_3572_7 + x_3572_23 + x_3572_24 - 2 restored_node_3572_Columbus = 0 
fc_3572_El_Paso: x_3572_21 + x_3572_25 + x_3572_18 + x_3572_26 - 2 restored_node_3572_El_Paso = 0 
fc_3572_Kansas_City: x_3572_22 + x_3572_6 + x_3572_16 + x_3572_27 - 2 restored_node_3572_Kansas_City = 0 
fc_3572_Las_Vegas: x_3572_28 + x_3572_29 + x_3572_30 - 2 restored_node_3572_Las_Vegas = 0 
fc_3572_Los_Angeles: x_3572_31 + x_3572_29 + x_3572_32 - 2 restored_node_3572_Los_Angeles = 0 
fc_3572_Louisville: x_3572_27 + x_3572_33 + x_3572_14 + x_3572_34 + x_3572_24 - 2 restored_node_3572_Louisville = 0 
fc_3572_New_Orleans: x_3572_37 - restored_3572 = 0 
fc_3572_New_York: x_3572_38 + x_3572_9 + x_3572_23 - 2 restored_node_3572_New_York = 0 
fc_3572_Birmingham: x_3572_19 + x_3572_11 + x_3572_15 + x_3572_34 - restored_dc_3572_Birmingham = 0 
fc_3572_Portland: x_3572_39 + x_3572_40 + x_3572_2 - 2 restored_node_3572_Portland = 0 
fc_3572_Salt_Lake_City: x_3572_41 + x_3572_30 + x_3572_42 + x_3572_0 + x_3572_20 - restored_dc_3572_Salt_Lake_City = 0 
fc_3572_San_Antonio: x_3572_17 + x_3572_26 - 2 restored_node_3572_San_Antonio = 0 
fc_3572_San_Francisco: x_3572_40 + x_3572_31 + x_3572_28 + x_3572_41 - 2 restored_node_3572_San_Francisco = 0 
fc_3572_Seattle: x_3572_39 + x_3572_1 - 2 restored_node_3572_Seattle = 0 
fc_3572_Tallahassee: x_3572_37 + x_3572_10 - 2 restored_node_3572_Tallahassee = 0 
fc_3572_Tucson: x_3572_32 + x_3572_42 + x_3572_25 - 2 restored_node_3572_Tucson = 0 
fc_3572_Washington_DC: x_3572_13 + x_3572_38 + x_3572_33 - 2 restored_node_3572_Washington_DC = 0 
fc_4818_Billings: x_4818_0 + x_4818_1 + x_4818_2 + x_4818_3 + x_4818_4 - 2 restored_node_4818_Billings = 0 
fc_4818_Bismarck: x_4818_5 + x_4818_4 + x_4818_6 + x_4818_7 + x_4818_8 - restored_dc_4818_Bismarck = 0 
fc_4818_Ithaca: x_4818_9 + x_4818_8 - 2 restored_node_4818_Ithaca = 0 
fc_4818_Charleston: x_4818_10 + x_4818_11 + x_4818_12 - 2 restored_node_4818_Charleston = 0 
fc_4818_Charlotte: x_4818_12 + x_4818_13 + x_4818_14 + x_4818_15 - 2 restored_node_4818_Charlotte = 0 
fc_4818_Dallas: x_4818_16 + x_4818_17 + x_4818_18 + x_4818_19 - 2 restored_node_4818_Dallas = 0 
fc_4818_Denver: x_4818_3 + x_4818_20 + x_4818_21 + x_4818_5 + x_4818_22 - 2 restored_node_4818_Denver = 0 
fc_4818_Columbus: x_4818_7 + x_4818_23 + x_4818_24 - 2 restored_node_4818_Columbus = 0 
fc_4818_El_Paso: x_4818_21 + x_4818_25 + x_4818_18 + x_4818_26 - 2 restored_node_4818_El_Paso = 0 
fc_4818_Kansas_City: x_4818_22 + x_4818_6 + x_4818_16 + x_4818_27 - 2 restored_node_4818_Kansas_City = 0 
fc_4818_Las_Vegas: x_4818_28 + x_4818_29 + x_4818_30 - 2 restored_node_4818_Las_Vegas = 0 
fc_4818_Los_Angeles: x_4818_31 + x_4818_29 + x_4818_32 - 2 restored_node_4818_Los_Angeles = 0 
fc_4818_Louisville: x_4818_27 + x_4818_33 + x_4818_14 + x_4818_34 + x_4818_24 - 2 restored_node_4818_Louisville = 0 
fc_4818_New_Orleans: x_4818_37 - 2 restored_node_4818_New_Orleans = 0 
fc_4818_New_York: x_4818_38 + x_4818_9 + x_4818_23 - 2 restored_node_4818_New_York = 0 
fc_4818_Birmingham: x_4818_19 + x_4818_11 + x_4818_15 + x_4818_34 - restored_dc_4818_Birmingham = 0 
fc_4818_Portland: x_4818_39 + x_4818_40 + x_4818_2 - 2 restored_node_4818_Portland = 0 
fc_4818_Salt_Lake_City: x_4818_41 + x_4818_30 + x_4818_42 + x_4818_0 + x_4818_20 - restored_dc_4818_Salt_Lake_City = 0 
fc_4818_San_Antonio: x_4818_17 + x_4818_26 - 2 restored_node_4818_San_Antonio = 0 
fc_4818_San_Francisco: x_4818_40 + x_4818_31 + x_4818_28 + x_4818_41 - 2 restored_node_4818_San_Francisco = 0 
fc_4818_Seattle: x_4818_39 + x_4818_1 - 2 restored_node_4818_Seattle = 0 
fc_4818_Tallahassee: x_4818_37 + x_4818_10 - restored_4818 = 0 
fc_4818_Tucson: x_4818_32 + x_4818_42 + x_4818_25 - 2 restored_node_4818_Tucson = 0 
fc_4818_Washington_DC: x_4818_13 + x_4818_38 + x_4818_33 - 2 restored_node_4818_Washington_DC = 0 
fc_4659_Billings: x_4659_0 + x_4659_1 + x_4659_2 + x_4659_3 + x_4659_4 - 2 restored_node_4659_Billings = 0 
fc_4659_Bismarck: x_4659_5 + x_4659_4 + x_4659_6 + x_4659_7 + x_4659_8 - restored_dc_4659_Bismarck = 0 
fc_4659_Ithaca: x_4659_9 + x_4659_8 - 2 restored_node_4659_Ithaca = 0 
fc_4659_Charleston: x_4659_10 + x_4659_11 + x_4659_12 - 2 restored_node_4659_Charleston = 0 
fc_4659_Charlotte: x_4659_12 + x_4659_13 + x_4659_14 + x_4659_15 - 2 restored_node_4659_Charlotte = 0 
fc_4659_Dallas: x_4659_16 + x_4659_17 + x_4659_18 + x_4659_19 - 2 restored_node_4659_Dallas = 0 
fc_4659_Denver: x_4659_3 + x_4659_20 + x_4659_21 + x_4659_5 + x_4659_22 - 2 restored_node_4659_Denver = 0 
fc_4659_Columbus: x_4659_7 + x_4659_23 + x_4659_24 - 2 restored_node_4659_Columbus = 0 
fc_4659_El_Paso: x_4659_21 + x_4659_25 + x_4659_18 + x_4659_26 - 2 restored_node_4659_El_Paso = 0 
fc_4659_Kansas_City: x_4659_22 + x_4659_6 + x_4659_16 + x_4659_27 - 2 restored_node_4659_Kansas_City = 0 
fc_4659_Las_Vegas: x_4659_28 + x_4659_29 + x_4659_30 - 2 restored_node_4659_Las_Vegas = 0 
fc_4659_Los_Angeles: x_4659_31 + x_4659_29 + x_4659_32 - 2 restored_node_4659_Los_Angeles = 0 
fc_4659_Louisville: x_4659_27 + x_4659_33 + x_4659_14 + x_4659_34 + x_4659_24 - 2 restored_node_4659_Louisville = 0 
fc_4659_New_Orleans: x_4659_37 - 2 restored_node_4659_New_Orleans = 0 
fc_4659_New_York: x_4659_38 + x_4659_9 + x_4659_23 - 2 restored_node_4659_New_York = 0 
fc_4659_Birmingham: x_4659_19 + x_4659_11 + x_4659_15 + x_4659_34 - restored_dc_4659_Birmingham = 0 
fc_4659_Portland: x_4659_39 + x_4659_40 + x_4659_2 - 2 restored_node_4659_Portland = 0 
fc_4659_Salt_Lake_City: x_4659_41 + x_4659_30 + x_4659_42 + x_4659_0 + x_4659_20 - restored_dc_4659_Salt_Lake_City = 0 
fc_4659_San_Antonio: x_4659_17 + x_4659_26 - restored_4659 = 0 
fc_4659_San_Francisco: x_4659_40 + x_4659_31 + x_4659_28 + x_4659_41 - 2 restored_node_4659_San_Francisco = 0 
fc_4659_Seattle: x_4659_39 + x_4659_1 - 2 restored_node_4659_Seattle = 0 
fc_4659_Tallahassee: x_4659_37 + x_4659_10 - 2 restored_node_4659_Tallahassee = 0 
fc_4659_Tucson: x_4659_32 + x_4659_42 + x_4659_25 - 2 restored_node_4659_Tucson = 0 
fc_4659_Washington_DC: x_4659_13 + x_4659_38 + x_4659_33 - 2 restored_node_4659_Washington_DC = 0 
fc_3253_Billings: x_3253_0 + x_3253_1 + x_3253_2 + x_3253_3 + x_3253_4 - 2 restored_node_3253_Billings = 0 
fc_3253_Bismarck: x_3253_5 + x_3253_4 + x_3253_6 + x_3253_7 + x_3253_8 - restored_dc_3253_Bismarck = 0 
fc_3253_Ithaca: x_3253_9 + x_3253_8 - 2 restored_node_3253_Ithaca = 0 
fc_3253_Charleston: x_3253_10 + x_3253_11 + x_3253_12 - 2 restored_node_3253_Charleston = 0 
fc_3253_Charlotte: x_3253_12 + x_3253_13 + x_3253_14 + x_3253_15 - 2 restored_node_3253_Charlotte = 0 
fc_3253_Dallas: x_3253_16 + x_3253_17 + x_3253_18 + x_3253_19 - 2 restored_node_3253_Dallas = 0 
fc_3253_Denver: x_3253_3 + x_3253_20 + x_3253_21 + x_3253_5 + x_3253_22 - 2 restored_node_3253_Denver = 0 
fc_3253_Columbus: x_3253_7 + x_3253_23 + x_3253_24 - 2 restored_node_3253_Columbus = 0 
fc_3253_El_Paso: x_3253_21 + x_3253_25 + x_3253_18 + x_3253_26 - 2 restored_node_3253_El_Paso = 0 
fc_3253_Kansas_City: x_3253_22 + x_3253_6 + x_3253_16 + x_3253_27 - 2 restored_node_3253_Kansas_City = 0 
fc_3253_Las_Vegas: x_3253_28 + x_3253_29 + x_3253_30 - 2 restored_node_3253_Las_Vegas = 0 
fc_3253_Los_Angeles: x_3253_31 + x_3253_29 + x_3253_32 - 2 restored_node_3253_Los_Angeles = 0 
fc_3253_Louisville: x_3253_27 + x_3253_33 + x_3253_14 + x_3253_34 + x_3253_24 - 2 restored_node_3253_Louisville = 0 
fc_3253_New_Orleans: x_3253_37 - restored_3253 = 0 
fc_3253_New_York: x_3253_38 + x_3253_9 + x_3253_23 - 2 restored_node_3253_New_York = 0 
fc_3253_Birmingham: x_3253_19 + x_3253_11 + x_3253_15 + x_3253_34 - restored_dc_3253_Birmingham = 0 
fc_3253_Portland: x_3253_39 + x_3253_40 + x_3253_2 - 2 restored_node_3253_Portland = 0 
fc_3253_Salt_Lake_City: x_3253_41 + x_3253_30 + x_3253_42 + x_3253_0 + x_3253_20 - restored_dc_3253_Salt_Lake_City = 0 
fc_3253_San_Antonio: x_3253_17 + x_3253_26 - 2 restored_node_3253_San_Antonio = 0 
fc_3253_San_Francisco: x_3253_40 + x_3253_31 + x_3253_28 + x_3253_41 - 2 restored_node_3253_San_Francisco = 0 
fc_3253_Seattle: x_3253_39 + x_3253_1 - 2 restored_node_3253_Seattle = 0 
fc_3253_Tallahassee: x_3253_37 + x_3253_10 - 2 restored_node_3253_Tallahassee = 0 
fc_3253_Tucson: x_3253_32 + x_3253_42 + x_3253_25 - 2 restored_node_3253_Tucson = 0 
fc_3253_Washington_DC: x_3253_13 + x_3253_38 + x_3253_33 - 2 restored_node_3253_Washington_DC = 0 
fc_4352_Billings: x_4352_0 + x_4352_1 + x_4352_2 + x_4352_3 + x_4352_4 - 2 restored_node_4352_Billings = 0 
fc_4352_Bismarck: x_4352_5 + x_4352_4 + x_4352_6 + x_4352_7 + x_4352_8 - restored_dc_4352_Bismarck = 0 
fc_4352_Ithaca: x_4352_9 + x_4352_8 - 2 restored_node_4352_Ithaca = 0 
fc_4352_Charleston: x_4352_10 + x_4352_11 + x_4352_12 - 2 restored_node_4352_Charleston = 0 
fc_4352_Charlotte: x_4352_12 + x_4352_13 + x_4352_14 + x_4352_15 - 2 restored_node_4352_Charlotte = 0 
fc_4352_Dallas: x_4352_16 + x_4352_17 + x_4352_18 + x_4352_19 - 2 restored_node_4352_Dallas = 0 
fc_4352_Denver: x_4352_3 + x_4352_20 + x_4352_21 + x_4352_5 + x_4352_22 - 2 restored_node_4352_Denver = 0 
fc_4352_Columbus: x_4352_7 + x_4352_23 + x_4352_24 - 2 restored_node_4352_Columbus = 0 
fc_4352_El_Paso: x_4352_21 + x_4352_25 + x_4352_18 + x_4352_26 - 2 restored_node_4352_El_Paso = 0 
fc_4352_Kansas_City: x_4352_22 + x_4352_6 + x_4352_16 + x_4352_27 - 2 restored_node_4352_Kansas_City = 0 
fc_4352_Las_Vegas: x_4352_28 + x_4352_29 + x_4352_30 - 2 restored_node_4352_Las_Vegas = 0 
fc_4352_Los_Angeles: x_4352_31 + x_4352_29 + x_4352_32 - 2 restored_node_4352_Los_Angeles = 0 
fc_4352_Louisville: x_4352_27 + x_4352_33 + x_4352_14 + x_4352_34 + x_4352_24 - 2 restored_node_4352_Louisville = 0 
fc_4352_New_Orleans: x_4352_37 - restored_4352 = 0 
fc_4352_New_York: x_4352_38 + x_4352_9 + x_4352_23 - 2 restored_node_4352_New_York = 0 
fc_4352_Birmingham: x_4352_19 + x_4352_11 + x_4352_15 + x_4352_34 - restored_dc_4352_Birmingham = 0 
fc_4352_Portland: x_4352_39 + x_4352_40 + x_4352_2 - 2 restored_node_4352_Portland = 0 
fc_4352_Salt_Lake_City: x_4352_41 + x_4352_30 + x_4352_42 + x_4352_0 + x_4352_20 - restored_dc_4352_Salt_Lake_City = 0 
fc_4352_San_Antonio: x_4352_17 + x_4352_26 - 2 restored_node_4352_San_Antonio = 0 
fc_4352_San_Francisco: x_4352_40 + x_4352_31 + x_4352_28 + x_4352_41 - 2 restored_node_4352_San_Francisco = 0 
fc_4352_Seattle: x_4352_39 + x_4352_1 - 2 restored_node_4352_Seattle = 0 
fc_4352_Tallahassee: x_4352_37 + x_4352_10 - 2 restored_node_4352_Tallahassee = 0 
fc_4352_Tucson: x_4352_32 + x_4352_42 + x_4352_25 - 2 restored_node_4352_Tucson = 0 
fc_4352_Washington_DC: x_4352_13 + x_4352_38 + x_4352_33 - 2 restored_node_4352_Washington_DC = 0 
fc_3350_Billings: x_3350_0 + x_3350_1 + x_3350_2 + x_3350_3 + x_3350_4 - 2 restored_node_3350_Billings = 0 
fc_3350_Bismarck: x_3350_5 + x_3350_4 + x_3350_6 + x_3350_7 + x_3350_8 - restored_dc_3350_Bismarck = 0 
fc_3350_Ithaca: x_3350_9 + x_3350_8 - 2 restored_node_3350_Ithaca = 0 
fc_3350_Charleston: x_3350_10 + x_3350_11 + x_3350_12 - 2 restored_node_3350_Charleston = 0 
fc_3350_Charlotte: x_3350_12 + x_3350_13 + x_3350_14 + x_3350_15 - 2 restored_node_3350_Charlotte = 0 
fc_3350_Dallas: x_3350_16 + x_3350_17 + x_3350_18 + x_3350_19 - 2 restored_node_3350_Dallas = 0 
fc_3350_Denver: x_3350_3 + x_3350_20 + x_3350_21 + x_3350_5 + x_3350_22 - 2 restored_node_3350_Denver = 0 
fc_3350_Columbus: x_3350_7 + x_3350_23 + x_3350_24 - 2 restored_node_3350_Columbus = 0 
fc_3350_El_Paso: x_3350_21 + x_3350_25 + x_3350_18 + x_3350_26 - 2 restored_node_3350_El_Paso = 0 
fc_3350_Kansas_City: x_3350_22 + x_3350_6 + x_3350_16 + x_3350_27 - 2 restored_node_3350_Kansas_City = 0 
fc_3350_Las_Vegas: x_3350_28 + x_3350_29 + x_3350_30 - 2 restored_node_3350_Las_Vegas = 0 
fc_3350_Los_Angeles: x_3350_31 + x_3350_29 + x_3350_32 - 2 restored_node_3350_Los_Angeles = 0 
fc_3350_Louisville: x_3350_27 + x_3350_33 + x_3350_14 + x_3350_34 + x_3350_24 - 2 restored_node_3350_Louisville = 0 
fc_3350_New_Orleans: x_3350_37 - 2 restored_node_3350_New_Orleans = 0 
fc_3350_New_York: x_3350_38 + x_3350_9 + x_3350_23 - 2 restored_node_3350_New_York = 0 
fc_3350_Birmingham: x_3350_19 + x_3350_11 + x_3350_15 + x_3350_34 - restored_dc_3350_Birmingham = 0 
fc_3350_Portland: x_3350_39 + x_3350_40 + x_3350_2 - 2 restored_node_3350_Portland = 0 
fc_3350_Salt_Lake_City: x_3350_41 + x_3350_30 + x_3350_42 + x_3350_0 + x_3350_20 - restored_dc_3350_Salt_Lake_City = 0 
fc_3350_San_Antonio: x_3350_17 + x_3350_26 - 2 restored_node_3350_San_Antonio = 0 
fc_3350_San_Francisco: x_3350_40 + x_3350_31 + x_3350_28 + x_3350_41 - 2 restored_node_3350_San_Francisco = 0 
fc_3350_Seattle: x_3350_39 + x_3350_1 - 2 restored_node_3350_Seattle = 0 
fc_3350_Tallahassee: x_3350_37 + x_3350_10 - restored_3350 = 0 
fc_3350_Tucson: x_3350_32 + x_3350_42 + x_3350_25 - 2 restored_node_3350_Tucson = 0 
fc_3350_Washington_DC: x_3350_13 + x_3350_38 + x_3350_33 - 2 restored_node_3350_Washington_DC = 0 
fc_4741_Billings: x_4741_0 + x_4741_1 + x_4741_2 + x_4741_3 + x_4741_4 - 2 restored_node_4741_Billings = 0 
fc_4741_Bismarck: x_4741_5 + x_4741_4 + x_4741_6 + x_4741_7 + x_4741_8 - restored_dc_4741_Bismarck = 0 
fc_4741_Ithaca: x_4741_9 + x_4741_8 - 2 restored_node_4741_Ithaca = 0 
fc_4741_Charleston: x_4741_10 + x_4741_11 + x_4741_12 - 2 restored_node_4741_Charleston = 0 
fc_4741_Charlotte: x_4741_12 + x_4741_13 + x_4741_14 + x_4741_15 - 2 restored_node_4741_Charlotte = 0 
fc_4741_Dallas: x_4741_16 + x_4741_17 + x_4741_18 + x_4741_19 - 2 restored_node_4741_Dallas = 0 
fc_4741_Denver: x_4741_3 + x_4741_20 + x_4741_21 + x_4741_5 + x_4741_22 - 2 restored_node_4741_Denver = 0 
fc_4741_Columbus: x_4741_7 + x_4741_23 + x_4741_24 - 2 restored_node_4741_Columbus = 0 
fc_4741_El_Paso: x_4741_21 + x_4741_25 + x_4741_18 + x_4741_26 - 2 restored_node_4741_El_Paso = 0 
fc_4741_Kansas_City: x_4741_22 + x_4741_6 + x_4741_16 + x_4741_27 - 2 restored_node_4741_Kansas_City = 0 
fc_4741_Las_Vegas: x_4741_28 + x_4741_29 + x_4741_30 - 2 restored_node_4741_Las_Vegas = 0 
fc_4741_Los_Angeles: x_4741_31 + x_4741_29 + x_4741_32 - 2 restored_node_4741_Los_Angeles = 0 
fc_4741_Louisville: x_4741_27 + x_4741_33 + x_4741_14 + x_4741_34 + x_4741_24 - 2 restored_node_4741_Louisville = 0 
fc_4741_New_Orleans: x_4741_37 - restored_4741 = 0 
fc_4741_New_York: x_4741_38 + x_4741_9 + x_4741_23 - 2 restored_node_4741_New_York = 0 
fc_4741_Birmingham: x_4741_19 + x_4741_11 + x_4741_15 + x_4741_34 - restored_dc_4741_Birmingham = 0 
fc_4741_Portland: x_4741_39 + x_4741_40 + x_4741_2 - 2 restored_node_4741_Portland = 0 
fc_4741_Salt_Lake_City: x_4741_41 + x_4741_30 + x_4741_42 + x_4741_0 + x_4741_20 - restored_dc_4741_Salt_Lake_City = 0 
fc_4741_San_Antonio: x_4741_17 + x_4741_26 - 2 restored_node_4741_San_Antonio = 0 
fc_4741_San_Francisco: x_4741_40 + x_4741_31 + x_4741_28 + x_4741_41 - 2 restored_node_4741_San_Francisco = 0 
fc_4741_Seattle: x_4741_39 + x_4741_1 - 2 restored_node_4741_Seattle = 0 
fc_4741_Tallahassee: x_4741_37 + x_4741_10 - 2 restored_node_4741_Tallahassee = 0 
fc_4741_Tucson: x_4741_32 + x_4741_42 + x_4741_25 - 2 restored_node_4741_Tucson = 0 
fc_4741_Washington_DC: x_4741_13 + x_4741_38 + x_4741_33 - 2 restored_node_4741_Washington_DC = 0 
fc_4455_Billings: x_4455_0 + x_4455_1 + x_4455_2 + x_4455_3 + x_4455_4 - 2 restored_node_4455_Billings = 0 
fc_4455_Bismarck: x_4455_5 + x_4455_4 + x_4455_6 + x_4455_7 + x_4455_8 - restored_dc_4455_Bismarck = 0 
fc_4455_Ithaca: x_4455_9 + x_4455_8 - 2 restored_node_4455_Ithaca = 0 
fc_4455_Charleston: x_4455_10 + x_4455_11 + x_4455_12 - 2 restored_node_4455_Charleston = 0 
fc_4455_Charlotte: x_4455_12 + x_4455_13 + x_4455_14 + x_4455_15 - 2 restored_node_4455_Charlotte = 0 
fc_4455_Dallas: x_4455_16 + x_4455_17 + x_4455_18 + x_4455_19 - 2 restored_node_4455_Dallas = 0 
fc_4455_Denver: x_4455_3 + x_4455_20 + x_4455_21 + x_4455_5 + x_4455_22 - 2 restored_node_4455_Denver = 0 
fc_4455_Columbus: x_4455_7 + x_4455_23 + x_4455_24 - 2 restored_node_4455_Columbus = 0 
fc_4455_El_Paso: x_4455_21 + x_4455_25 + x_4455_18 + x_4455_26 - 2 restored_node_4455_El_Paso = 0 
fc_4455_Kansas_City: x_4455_22 + x_4455_6 + x_4455_16 + x_4455_27 - 2 restored_node_4455_Kansas_City = 0 
fc_4455_Las_Vegas: x_4455_28 + x_4455_29 + x_4455_30 - 2 restored_node_4455_Las_Vegas = 0 
fc_4455_Los_Angeles: x_4455_31 + x_4455_29 + x_4455_32 - 2 restored_node_4455_Los_Angeles = 0 
fc_4455_Louisville: x_4455_27 + x_4455_33 + x_4455_14 + x_4455_34 + x_4455_24 - 2 restored_node_4455_Louisville = 0 
fc_4455_New_Orleans: x_4455_37 - 2 restored_node_4455_New_Orleans = 0 
fc_4455_New_York: x_4455_38 + x_4455_9 + x_4455_23 - 2 restored_node_4455_New_York = 0 
fc_4455_Birmingham: x_4455_19 + x_4455_11 + x_4455_15 + x_4455_34 - restored_dc_4455_Birmingham = 0 
fc_4455_Portland: x_4455_39 + x_4455_40 + x_4455_2 - 2 restored_node_4455_Portland = 0 
fc_4455_Salt_Lake_City: x_4455_41 + x_4455_30 + x_4455_42 + x_4455_0 + x_4455_20 - restored_dc_4455_Salt_Lake_City = 0 
fc_4455_San_Antonio: x_4455_17 + x_4455_26 - 2 restored_node_4455_San_Antonio = 0 
fc_4455_San_Francisco: x_4455_40 + x_4455_31 + x_4455_28 + x_4455_41 - 2 restored_node_4455_San_Francisco = 0 
fc_4455_Seattle: x_4455_39 + x_4455_1 - 2 restored_node_4455_Seattle = 0 
fc_4455_Tallahassee: x_4455_37 + x_4455_10 - restored_4455 = 0 
fc_4455_Tucson: x_4455_32 + x_4455_42 + x_4455_25 - 2 restored_node_4455_Tucson = 0 
fc_4455_Washington_DC: x_4455_13 + x_4455_38 + x_4455_33 - 2 restored_node_4455_Washington_DC = 0 
fc_4328_Billings: x_4328_0 + x_4328_1 + x_4328_2 + x_4328_3 + x_4328_4 - 2 restored_node_4328_Billings = 0 
fc_4328_Bismarck: x_4328_5 + x_4328_4 + x_4328_6 + x_4328_7 + x_4328_8 - restored_dc_4328_Bismarck = 0 
fc_4328_Ithaca: x_4328_9 + x_4328_8 - 2 restored_node_4328_Ithaca = 0 
fc_4328_Charleston: x_4328_10 + x_4328_11 + x_4328_12 - 2 restored_node_4328_Charleston = 0 
fc_4328_Charlotte: x_4328_12 + x_4328_13 + x_4328_14 + x_4328_15 - 2 restored_node_4328_Charlotte = 0 
fc_4328_Dallas: x_4328_16 + x_4328_17 + x_4328_18 + x_4328_19 - 2 restored_node_4328_Dallas = 0 
fc_4328_Denver: x_4328_3 + x_4328_20 + x_4328_21 + x_4328_5 + x_4328_22 - 2 restored_node_4328_Denver = 0 
fc_4328_Columbus: x_4328_7 + x_4328_23 + x_4328_24 - 2 restored_node_4328_Columbus = 0 
fc_4328_El_Paso: x_4328_21 + x_4328_25 + x_4328_18 + x_4328_26 - 2 restored_node_4328_El_Paso = 0 
fc_4328_Kansas_City: x_4328_22 + x_4328_6 + x_4328_16 + x_4328_27 - 2 restored_node_4328_Kansas_City = 0 
fc_4328_Las_Vegas: x_4328_28 + x_4328_29 + x_4328_30 - 2 restored_node_4328_Las_Vegas = 0 
fc_4328_Los_Angeles: x_4328_31 + x_4328_29 + x_4328_32 - 2 restored_node_4328_Los_Angeles = 0 
fc_4328_Louisville: x_4328_27 + x_4328_33 + x_4328_14 + x_4328_34 + x_4328_24 - 2 restored_node_4328_Louisville = 0 
fc_4328_New_Orleans: x_4328_37 - restored_4328 = 0 
fc_4328_New_York: x_4328_38 + x_4328_9 + x_4328_23 - 2 restored_node_4328_New_York = 0 
fc_4328_Birmingham: x_4328_19 + x_4328_11 + x_4328_15 + x_4328_34 - restored_dc_4328_Birmingham = 0 
fc_4328_Portland: x_4328_39 + x_4328_40 + x_4328_2 - 2 restored_node_4328_Portland = 0 
fc_4328_Salt_Lake_City: x_4328_41 + x_4328_30 + x_4328_42 + x_4328_0 + x_4328_20 - restored_dc_4328_Salt_Lake_City = 0 
fc_4328_San_Antonio: x_4328_17 + x_4328_26 - 2 restored_node_4328_San_Antonio = 0 
fc_4328_San_Francisco: x_4328_40 + x_4328_31 + x_4328_28 + x_4328_41 - 2 restored_node_4328_San_Francisco = 0 
fc_4328_Seattle: x_4328_39 + x_4328_1 - 2 restored_node_4328_Seattle = 0 
fc_4328_Tallahassee: x_4328_37 + x_4328_10 - 2 restored_node_4328_Tallahassee = 0 
fc_4328_Tucson: x_4328_32 + x_4328_42 + x_4328_25 - 2 restored_node_4328_Tucson = 0 
fc_4328_Washington_DC: x_4328_13 + x_4328_38 + x_4328_33 - 2 restored_node_4328_Washington_DC = 0 
ll_0: x_4688_0 + x_4805_0 + x_4824_0 + x_4527_0 + x_4123_0 + x_3470_0 + x_4000_0 + x_4870_0 + x_4867_0 + x_4256_0 + x_4789_0 + x_4026_0 + x_4639_0 + x_4598_0 + x_4772_0 + x_4781_0 + x_4624_0 + x_4877_0 + x_4255_0 + x_4631_0 + x_3740_0 + x_4637_0 + x_3691_0 + x_4709_0 + x_4758_0 + x_4548_0 + x_4423_0 + x_4331_0 + x_4744_0 + x_4210_0 + x_505_0 + x_3161_0 + x_4359_0 + x_4488_0 + x_4463_0 + x_4651_0 + x_4771_0 + x_4847_0 + x_4734_0 + x_4432_0 + x_4621_0 + x_4710_0 + x_4865_0 + x_4647_0 + x_3381_0 + x_3209_0 + x_4453_0 + x_2620_0 + x_4130_0 + x_4354_0 + x_4433_0 + x_4518_0 + x_4644_0 + x_3840_0 + x_2413_0 + x_3664_0 + x_4774_0 + x_3759_0 + x_3968_0 + x_4270_0 + x_4129_0 + x_4671_0 + x_4152_0 + x_4379_0 + x_4812_0 + x_4513_0 + x_4584_0 + x_4585_0 + x_4212_0 + x_4272_0 + x_4144_0 + x_3572_0 + x_4818_0 + x_4659_0 + x_3253_0 + x_4352_0 + x_3350_0 + x_4741_0 + x_4455_0 + x_4328_0 - load_0 = 0
ll_1: x_4688_1 + x_4805_1 + x_4824_1 + x_4527_1 + x_4123_1 + x_3470_1 + x_4000_1 + x_4870_1 + x_4867_1 + x_4256_1 + x_4789_1 + x_4026_1 + x_4639_1 + x_4598_1 + x_4772_1 + x_4781_1 + x_4624_1 + x_4877_1 + x_4255_1 + x_4631_1 + x_3740_1 + x_4637_1 + x_3691_1 + x_4709_1 + x_4758_1 + x_4548_1 + x_4423_1 + x_4331_1 + x_4744_1 + x_4210_1 + x_505_1 + x_3161_1 + x_4359_1 + x_4488_1 + x_4463_1 + x_4651_1 + x_4771_1 + x_4847_1 + x_4734_1 + x_4432_1 + x_4621_1 + x_4710_1 + x_4865_1 + x_4647_1 + x_3381_1 + x_3209_1 + x_4453_1 + x_2620_1 + x_4130_1 + x_4354_1 + x_4433_1 + x_4518_1 + x_4644_1 + x_3840_1 + x_2413_1 + x_3664_1 + x_4774_1 + x_3759_1 + x_3968_1 + x_4270_1 + x_4129_1 + x_4671_1 + x_4152_1 + x_4379_1 + x_4812_1 + x_4513_1 + x_4584_1 + x_4585_1 + x_4212_1 + x_4272_1 + x_4144_1 + x_3572_1 + x_4818_1 + x_4659_1 + x_3253_1 + x_4352_1 + x_3350_1 + x_4741_1 + x_4455_1 + x_4328_1 - load_1 = 0
ll_2: x_4688_2 + x_4805_2 + x_4824_2 + x_4527_2 + x_4123_2 + x_3470_2 + x_4000_2 + x_4870_2 + x_4867_2 + x_4256_2 + x_4789_2 + x_4026_2 + x_4639_2 + x_4598_2 + x_4772_2 + x_4781_2 + x_4624_2 + x_4877_2 + x_4255_2 + x_4631_2 + x_3740_2 + x_4637_2 + x_3691_2 + x_4709_2 + x_4758_2 + x_4548_2 + x_4423_2 + x_4331_2 + x_4744_2 + x_4210_2 + x_505_2 + x_3161_2 + x_4359_2 + x_4488_2 + x_4463_2 + x_4651_2 + x_4771_2 + x_4847_2 + x_4734_2 + x_4432_2 + x_4621_2 + x_4710_2 + x_4865_2 + x_4647_2 + x_3381_2 + x_3209_2 + x_4453_2 + x_2620_2 + x_4130_2 + x_4354_2 + x_4433_2 + x_4518_2 + x_4644_2 + x_3840_2 + x_2413_2 + x_3664_2 + x_4774_2 + x_3759_2 + x_3968_2 + x_4270_2 + x_4129_2 + x_4671_2 + x_4152_2 + x_4379_2 + x_4812_2 + x_4513_2 + x_4584_2 + x_4585_2 + x_4212_2 + x_4272_2 + x_4144_2 + x_3572_2 + x_4818_2 + x_4659_2 + x_3253_2 + x_4352_2 + x_3350_2 + x_4741_2 + x_4455_2 + x_4328_2 - load_2 = 0
ll_3: x_4688_3 + x_4805_3 + x_4824_3 + x_4527_3 + x_4123_3 + x_3470_3 + x_4000_3 + x_4870_3 + x_4867_3 + x_4256_3 + x_4789_3 + x_4026_3 + x_4639_3 + x_4598_3 + x_4772_3 + x_4781_3 + x_4624_3 + x_4877_3 + x_4255_3 + x_4631_3 + x_3740_3 + x_4637_3 + x_3691_3 + x_4709_3 + x_4758_3 + x_4548_3 + x_4423_3 + x_4331_3 + x_4744_3 + x_4210_3 + x_505_3 + x_3161_3 + x_4359_3 + x_4488_3 + x_4463_3 + x_4651_3 + x_4771_3 + x_4847_3 + x_4734_3 + x_4432_3 + x_4621_3 + x_4710_3 + x_4865_3 + x_4647_3 + x_3381_3 + x_3209_3 + x_4453_3 + x_2620_3 + x_4130_3 + x_4354_3 + x_4433_3 + x_4518_3 + x_4644_3 + x_3840_3 + x_2413_3 + x_3664_3 + x_4774_3 + x_3759_3 + x_3968_3 + x_4270_3 + x_4129_3 + x_4671_3 + x_4152_3 + x_4379_3 + x_4812_3 + x_4513_3 + x_4584_3 + x_4585_3 + x_4212_3 + x_4272_3 + x_4144_3 + x_3572_3 + x_4818_3 + x_4659_3 + x_3253_3 + x_4352_3 + x_3350_3 + x_4741_3 + x_4455_3 + x_4328_3 - load_3 = 0
ll_4: x_4688_4 + x_4805_4 + x_4824_4 + x_4527_4 + x_4123_4 + x_3470_4 + x_4000_4 + x_4870_4 + x_4867_4 + x_4256_4 + x_4789_4 + x_4026_4 + x_4639_4 + x_4598_4 + x_4772_4 + x_4781_4 + x_4624_4 + x_4877_4 + x_4255_4 + x_4631_4 + x_3740_4 + x_4637_4 + x_3691_4 + x_4709_4 + x_4758_4 + x_4548_4 + x_4423_4 + x_4331_4 + x_4744_4 + x_4210_4 + x_505_4 + x_3161_4 + x_4359_4 + x_4488_4 + x_4463_4 + x_4651_4 + x_4771_4 + x_4847_4 + x_4734_4 + x_4432_4 + x_4621_4 + x_4710_4 + x_4865_4 + x_4647_4 + x_3381_4 + x_3209_4 + x_4453_4 + x_2620_4 + x_4130_4 + x_4354_4 + x_4433_4 + x_4518_4 + x_4644_4 + x_3840_4 + x_2413_4 + x_3664_4 + x_4774_4 + x_3759_4 + x_3968_4 + x_4270_4 + x_4129_4 + x_4671_4 + x_4152_4 + x_4379_4 + x_4812_4 + x_4513_4 + x_4584_4 + x_4585_4 + x_4212_4 + x_4272_4 + x_4144_4 + x_3572_4 + x_4818_4 + x_4659_4 + x_3253_4 + x_4352_4 + x_3350_4 + x_4741_4 + x_4455_4 + x_4328_4 - load_4 = 0
ll_5: x_4688_5 + x_4805_5 + x_4824_5 + x_4527_5 + x_4123_5 + x_3470_5 + x_4000_5 + x_4870_5 + x_4867_5 + x_4256_5 + x_4789_5 + x_4026_5 + x_4639_5 + x_4598_5 + x_4772_5 + x_4781_5 + x_4624_5 + x_4877_5 + x_4255_5 + x_4631_5 + x_3740_5 + x_4637_5 + x_3691_5 + x_4709_5 + x_4758_5 + x_4548_5 + x_4423_5 + x_4331_5 + x_4744_5 + x_4210_5 + x_505_5 + x_3161_5 + x_4359_5 + x_4488_5 + x_4463_5 + x_4651_5 + x_4771_5 + x_4847_5 + x_4734_5 + x_4432_5 + x_4621_5 + x_4710_5 + x_4865_5 + x_4647_5 + x_3381_5 + x_3209_5 + x_4453_5 + x_2620_5 + x_4130_5 + x_4354_5 + x_4433_5 + x_4518_5 + x_4644_5 + x_3840_5 + x_2413_5 + x_3664_5 + x_4774_5 + x_3759_5 + x_3968_5 + x_4270_5 + x_4129_5 + x_4671_5 + x_4152_5 + x_4379_5 + x_4812_5 + x_4513_5 + x_4584_5 + x_4585_5 + x_4212_5 + x_4272_5 + x_4144_5 + x_3572_5 + x_4818_5 + x_4659_5 + x_3253_5 + x_4352_5 + x_3350_5 + x_4741_5 + x_4455_5 + x_4328_5 - load_5 = 0
ll_6: x_4688_6 + x_4805_6 + x_4824_6 + x_4527_6 + x_4123_6 + x_3470_6 + x_4000_6 + x_4870_6 + x_4867_6 + x_4256_6 + x_4789_6 + x_4026_6 + x_4639_6 + x_4598_6 + x_4772_6 + x_4781_6 + x_4624_6 + x_4877_6 + x_4255_6 + x_4631_6 + x_3740_6 + x_4637_6 + x_3691_6 + x_4709_6 + x_4758_6 + x_4548_6 + x_4423_6 + x_4331_6 + x_4744_6 + x_4210_6 + x_505_6 + x_3161_6 + x_4359_6 + x_4488_6 + x_4463_6 + x_4651_6 + x_4771_6 + x_4847_6 + x_4734_6 + x_4432_6 + x_4621_6 + x_4710_6 + x_4865_6 + x_4647_6 + x_3381_6 + x_3209_6 + x_4453_6 + x_2620_6 + x_4130_6 + x_4354_6 + x_4433_6 + x_4518_6 + x_4644_6 + x_3840_6 + x_2413_6 + x_3664_6 + x_4774_6 + x_3759_6 + x_3968_6 + x_4270_6 + x_4129_6 + x_4671_6 + x_4152_6 + x_4379_6 + x_4812_6 + x_4513_6 + x_4584_6 + x_4585_6 + x_4212_6 + x_4272_6 + x_4144_6 + x_3572_6 + x_4818_6 + x_4659_6 + x_3253_6 + x_4352_6 + x_3350_6 + x_4741_6 + x_4455_6 + x_4328_6 - load_6 = 0
ll_7: x_4688_7 + x_4805_7 + x_4824_7 + x_4527_7 + x_4123_7 + x_3470_7 + x_4000_7 + x_4870_7 + x_4867_7 + x_4256_7 + x_4789_7 + x_4026_7 + x_4639_7 + x_4598_7 + x_4772_7 + x_4781_7 + x_4624_7 + x_4877_7 + x_4255_7 + x_4631_7 + x_3740_7 + x_4637_7 + x_3691_7 + x_4709_7 + x_4758_7 + x_4548_7 + x_4423_7 + x_4331_7 + x_4744_7 + x_4210_7 + x_505_7 + x_3161_7 + x_4359_7 + x_4488_7 + x_4463_7 + x_4651_7 + x_4771_7 + x_4847_7 + x_4734_7 + x_4432_7 + x_4621_7 + x_4710_7 + x_4865_7 + x_4647_7 + x_3381_7 + x_3209_7 + x_4453_7 + x_2620_7 + x_4130_7 + x_4354_7 + x_4433_7 + x_4518_7 + x_4644_7 + x_3840_7 + x_2413_7 + x_3664_7 + x_4774_7 + x_3759_7 + x_3968_7 + x_4270_7 + x_4129_7 + x_4671_7 + x_4152_7 + x_4379_7 + x_4812_7 + x_4513_7 + x_4584_7 + x_4585_7 + x_4212_7 + x_4272_7 + x_4144_7 + x_3572_7 + x_4818_7 + x_4659_7 + x_3253_7 + x_4352_7 + x_3350_7 + x_4741_7 + x_4455_7 + x_4328_7 - load_7 = 0
ll_8: x_4688_8 + x_4805_8 + x_4824_8 + x_4527_8 + x_4123_8 + x_3470_8 + x_4000_8 + x_4870_8 + x_4867_8 + x_4256_8 + x_4789_8 + x_4026_8 + x_4639_8 + x_4598_8 + x_4772_8 + x_4781_8 + x_4624_8 + x_4877_8 + x_4255_8 + x_4631_8 + x_3740_8 + x_4637_8 + x_3691_8 + x_4709_8 + x_4758_8 + x_4548_8 + x_4423_8 + x_4331_8 + x_4744_8 + x_4210_8 + x_505_8 + x_3161_8 + x_4359_8 + x_4488_8 + x_4463_8 + x_4651_8 + x_4771_8 + x_4847_8 + x_4734_8 + x_4432_8 + x_4621_8 + x_4710_8 + x_4865_8 + x_4647_8 + x_3381_8 + x_3209_8 + x_4453_8 + x_2620_8 + x_4130_8 + x_4354_8 + x_4433_8 + x_4518_8 + x_4644_8 + x_3840_8 + x_2413_8 + x_3664_8 + x_4774_8 + x_3759_8 + x_3968_8 + x_4270_8 + x_4129_8 + x_4671_8 + x_4152_8 + x_4379_8 + x_4812_8 + x_4513_8 + x_4584_8 + x_4585_8 + x_4212_8 + x_4272_8 + x_4144_8 + x_3572_8 + x_4818_8 + x_4659_8 + x_3253_8 + x_4352_8 + x_3350_8 + x_4741_8 + x_4455_8 + x_4328_8 - load_8 = 0
ll_9: x_4688_9 + x_4805_9 + x_4824_9 + x_4527_9 + x_4123_9 + x_3470_9 + x_4000_9 + x_4870_9 + x_4867_9 + x_4256_9 + x_4789_9 + x_4026_9 + x_4639_9 + x_4598_9 + x_4772_9 + x_4781_9 + x_4624_9 + x_4877_9 + x_4255_9 + x_4631_9 + x_3740_9 + x_4637_9 + x_3691_9 + x_4709_9 + x_4758_9 + x_4548_9 + x_4423_9 + x_4331_9 + x_4744_9 + x_4210_9 + x_505_9 + x_3161_9 + x_4359_9 + x_4488_9 + x_4463_9 + x_4651_9 + x_4771_9 + x_4847_9 + x_4734_9 + x_4432_9 + x_4621_9 + x_4710_9 + x_4865_9 + x_4647_9 + x_3381_9 + x_3209_9 + x_4453_9 + x_2620_9 + x_4130_9 + x_4354_9 + x_4433_9 + x_4518_9 + x_4644_9 + x_3840_9 + x_2413_9 + x_3664_9 + x_4774_9 + x_3759_9 + x_3968_9 + x_4270_9 + x_4129_9 + x_4671_9 + x_4152_9 + x_4379_9 + x_4812_9 + x_4513_9 + x_4584_9 + x_4585_9 + x_4212_9 + x_4272_9 + x_4144_9 + x_3572_9 + x_4818_9 + x_4659_9 + x_3253_9 + x_4352_9 + x_3350_9 + x_4741_9 + x_4455_9 + x_4328_9 - load_9 = 0
ll_10: x_4688_10 + x_4805_10 + x_4824_10 + x_4527_10 + x_4123_10 + x_3470_10 + x_4000_10 + x_4870_10 + x_4867_10 + x_4256_10 + x_4789_10 + x_4026_10 + x_4639_10 + x_4598_10 + x_4772_10 + x_4781_10 + x_4624_10 + x_4877_10 + x_4255_10 + x_4631_10 + x_3740_10 + x_4637_10 + x_3691_10 + x_4709_10 + x_4758_10 + x_4548_10 + x_4423_10 + x_4331_10 + x_4744_10 + x_4210_10 + x_505_10 + x_3161_10 + x_4359_10 + x_4488_10 + x_4463_10 + x_4651_10 + x_4771_10 + x_4847_10 + x_4734_10 + x_4432_10 + x_4621_10 + x_4710_10 + x_4865_10 + x_4647_10 + x_3381_10 + x_3209_10 + x_4453_10 + x_2620_10 + x_4130_10 + x_4354_10 + x_4433_10 + x_4518_10 + x_4644_10 + x_3840_10 + x_2413_10 + x_3664_10 + x_4774_10 + x_3759_10 + x_3968_10 + x_4270_10 + x_4129_10 + x_4671_10 + x_4152_10 + x_4379_10 + x_4812_10 + x_4513_10 + x_4584_10 + x_4585_10 + x_4212_10 + x_4272_10 + x_4144_10 + x_3572_10 + x_4818_10 + x_4659_10 + x_3253_10 + x_4352_10 + x_3350_10 + x_4741_10 + x_4455_10 + x_4328_10 - load_10 = 0
ll_11: x_4688_11 + x_4805_11 + x_4824_11 + x_4527_11 + x_4123_11 + x_3470_11 + x_4000_11 + x_4870_11 + x_4867_11 + x_4256_11 + x_4789_11 + x_4026_11 + x_4639_11 + x_4598_11 + x_4772_11 + x_4781_11 + x_4624_11 + x_4877_11 + x_4255_11 + x_4631_11 + x_3740_11 + x_4637_11 + x_3691_11 + x_4709_11 + x_4758_11 + x_4548_11 + x_4423_11 + x_4331_11 + x_4744_11 + x_4210_11 + x_505_11 + x_3161_11 + x_4359_11 + x_4488_11 + x_4463_11 + x_4651_11 + x_4771_11 + x_4847_11 + x_4734_11 + x_4432_11 + x_4621_11 + x_4710_11 + x_4865_11 + x_4647_11 + x_3381_11 + x_3209_11 + x_4453_11 + x_2620_11 + x_4130_11 + x_4354_11 + x_4433_11 + x_4518_11 + x_4644_11 + x_3840_11 + x_2413_11 + x_3664_11 + x_4774_11 + x_3759_11 + x_3968_11 + x_4270_11 + x_4129_11 + x_4671_11 + x_4152_11 + x_4379_11 + x_4812_11 + x_4513_11 + x_4584_11 + x_4585_11 + x_4212_11 + x_4272_11 + x_4144_11 + x_3572_11 + x_4818_11 + x_4659_11 + x_3253_11 + x_4352_11 + x_3350_11 + x_4741_11 + x_4455_11 + x_4328_11 - load_11 = 0
ll_12: x_4688_12 + x_4805_12 + x_4824_12 + x_4527_12 + x_4123_12 + x_3470_12 + x_4000_12 + x_4870_12 + x_4867_12 + x_4256_12 + x_4789_12 + x_4026_12 + x_4639_12 + x_4598_12 + x_4772_12 + x_4781_12 + x_4624_12 + x_4877_12 + x_4255_12 + x_4631_12 + x_3740_12 + x_4637_12 + x_3691_12 + x_4709_12 + x_4758_12 + x_4548_12 + x_4423_12 + x_4331_12 + x_4744_12 + x_4210_12 + x_505_12 + x_3161_12 + x_4359_12 + x_4488_12 + x_4463_12 + x_4651_12 + x_4771_12 + x_4847_12 + x_4734_12 + x_4432_12 + x_4621_12 + x_4710_12 + x_4865_12 + x_4647_12 + x_3381_12 + x_3209_12 + x_4453_12 + x_2620_12 + x_4130_12 + x_4354_12 + x_4433_12 + x_4518_12 + x_4644_12 + x_3840_12 + x_2413_12 + x_3664_12 + x_4774_12 + x_3759_12 + x_3968_12 + x_4270_12 + x_4129_12 + x_4671_12 + x_4152_12 + x_4379_12 + x_4812_12 + x_4513_12 + x_4584_12 + x_4585_12 + x_4212_12 + x_4272_12 + x_4144_12 + x_3572_12 + x_4818_12 + x_4659_12 + x_3253_12 + x_4352_12 + x_3350_12 + x_4741_12 + x_4455_12 + x_4328_12 - load_12 = 0
ll_13: x_4688_13 + x_4805_13 + x_4824_13 + x_4527_13 + x_4123_13 + x_3470_13 + x_4000_13 + x_4870_13 + x_4867_13 + x_4256_13 + x_4789_13 + x_4026_13 + x_4639_13 + x_4598_13 + x_4772_13 + x_4781_13 + x_4624_13 + x_4877_13 + x_4255_13 + x_4631_13 + x_3740_13 + x_4637_13 + x_3691_13 + x_4709_13 + x_4758_13 + x_4548_13 + x_4423_13 + x_4331_13 + x_4744_13 + x_4210_13 + x_505_13 + x_3161_13 + x_4359_13 + x_4488_13 + x_4463_13 + x_4651_13 + x_4771_13 + x_4847_13 + x_4734_13 + x_4432_13 + x_4621_13 + x_4710_13 + x_4865_13 + x_4647_13 + x_3381_13 + x_3209_13 + x_4453_13 + x_2620_13 + x_4130_13 + x_4354_13 + x_4433_13 + x_4518_13 + x_4644_13 + x_3840_13 + x_2413_13 + x_3664_13 + x_4774_13 + x_3759_13 + x_3968_13 + x_4270_13 + x_4129_13 + x_4671_13 + x_4152_13 + x_4379_13 + x_4812_13 + x_4513_13 + x_4584_13 + x_4585_13 + x_4212_13 + x_4272_13 + x_4144_13 + x_3572_13 + x_4818_13 + x_4659_13 + x_3253_13 + x_4352_13 + x_3350_13 + x_4741_13 + x_4455_13 + x_4328_13 - load_13 = 0
ll_14: x_4688_14 + x_4805_14 + x_4824_14 + x_4527_14 + x_4123_14 + x_3470_14 + x_4000_14 + x_4870_14 + x_4867_14 + x_4256_14 + x_4789_14 + x_4026_14 + x_4639_14 + x_4598_14 + x_4772_14 + x_4781_14 + x_4624_14 + x_4877_14 + x_4255_14 + x_4631_14 + x_3740_14 + x_4637_14 + x_3691_14 + x_4709_14 + x_4758_14 + x_4548_14 + x_4423_14 + x_4331_14 + x_4744_14 + x_4210_14 + x_505_14 + x_3161_14 + x_4359_14 + x_4488_14 + x_4463_14 + x_4651_14 + x_4771_14 + x_4847_14 + x_4734_14 + x_4432_14 + x_4621_14 + x_4710_14 + x_4865_14 + x_4647_14 + x_3381_14 + x_3209_14 + x_4453_14 + x_2620_14 + x_4130_14 + x_4354_14 + x_4433_14 + x_4518_14 + x_4644_14 + x_3840_14 + x_2413_14 + x_3664_14 + x_4774_14 + x_3759_14 + x_3968_14 + x_4270_14 + x_4129_14 + x_4671_14 + x_4152_14 + x_4379_14 + x_4812_14 + x_4513_14 + x_4584_14 + x_4585_14 + x_4212_14 + x_4272_14 + x_4144_14 + x_3572_14 + x_4818_14 + x_4659_14 + x_3253_14 + x_4352_14 + x_3350_14 + x_4741_14 + x_4455_14 + x_4328_14 - load_14 = 0
ll_15: x_4688_15 + x_4805_15 + x_4824_15 + x_4527_15 + x_4123_15 + x_3470_15 + x_4000_15 + x_4870_15 + x_4867_15 + x_4256_15 + x_4789_15 + x_4026_15 + x_4639_15 + x_4598_15 + x_4772_15 + x_4781_15 + x_4624_15 + x_4877_15 + x_4255_15 + x_4631_15 + x_3740_15 + x_4637_15 + x_3691_15 + x_4709_15 + x_4758_15 + x_4548_15 + x_4423_15 + x_4331_15 + x_4744_15 + x_4210_15 + x_505_15 + x_3161_15 + x_4359_15 + x_4488_15 + x_4463_15 + x_4651_15 + x_4771_15 + x_4847_15 + x_4734_15 + x_4432_15 + x_4621_15 + x_4710_15 + x_4865_15 + x_4647_15 + x_3381_15 + x_3209_15 + x_4453_15 + x_2620_15 + x_4130_15 + x_4354_15 + x_4433_15 + x_4518_15 + x_4644_15 + x_3840_15 + x_2413_15 + x_3664_15 + x_4774_15 + x_3759_15 + x_3968_15 + x_4270_15 + x_4129_15 + x_4671_15 + x_4152_15 + x_4379_15 + x_4812_15 + x_4513_15 + x_4584_15 + x_4585_15 + x_4212_15 + x_4272_15 + x_4144_15 + x_3572_15 + x_4818_15 + x_4659_15 + x_3253_15 + x_4352_15 + x_3350_15 + x_4741_15 + x_4455_15 + x_4328_15 - load_15 = 0
ll_16: x_4688_16 + x_4805_16 + x_4824_16 + x_4527_16 + x_4123_16 + x_3470_16 + x_4000_16 + x_4870_16 + x_4867_16 + x_4256_16 + x_4789_16 + x_4026_16 + x_4639_16 + x_4598_16 + x_4772_16 + x_4781_16 + x_4624_16 + x_4877_16 + x_4255_16 + x_4631_16 + x_3740_16 + x_4637_16 + x_3691_16 + x_4709_16 + x_4758_16 + x_4548_16 + x_4423_16 + x_4331_16 + x_4744_16 + x_4210_16 + x_505_16 + x_3161_16 + x_4359_16 + x_4488_16 + x_4463_16 + x_4651_16 + x_4771_16 + x_4847_16 + x_4734_16 + x_4432_16 + x_4621_16 + x_4710_16 + x_4865_16 + x_4647_16 + x_3381_16 + x_3209_16 + x_4453_16 + x_2620_16 + x_4130_16 + x_4354_16 + x_4433_16 + x_4518_16 + x_4644_16 + x_3840_16 + x_2413_16 + x_3664_16 + x_4774_16 + x_3759_16 + x_3968_16 + x_4270_16 + x_4129_16 + x_4671_16 + x_4152_16 + x_4379_16 + x_4812_16 + x_4513_16 + x_4584_16 + x_4585_16 + x_4212_16 + x_4272_16 + x_4144_16 + x_3572_16 + x_4818_16 + x_4659_16 + x_3253_16 + x_4352_16 + x_3350_16 + x_4741_16 + x_4455_16 + x_4328_16 - load_16 = 0
ll_17: x_4688_17 + x_4805_17 + x_4824_17 + x_4527_17 + x_4123_17 + x_3470_17 + x_4000_17 + x_4870_17 + x_4867_17 + x_4256_17 + x_4789_17 + x_4026_17 + x_4639_17 + x_4598_17 + x_4772_17 + x_4781_17 + x_4624_17 + x_4877_17 + x_4255_17 + x_4631_17 + x_3740_17 + x_4637_17 + x_3691_17 + x_4709_17 + x_4758_17 + x_4548_17 + x_4423_17 + x_4331_17 + x_4744_17 + x_4210_17 + x_505_17 + x_3161_17 + x_4359_17 + x_4488_17 + x_4463_17 + x_4651_17 + x_4771_17 + x_4847_17 + x_4734_17 + x_4432_17 + x_4621_17 + x_4710_17 + x_4865_17 + x_4647_17 + x_3381_17 + x_3209_17 + x_4453_17 + x_2620_17 + x_4130_17 + x_4354_17 + x_4433_17 + x_4518_17 + x_4644_17 + x_3840_17 + x_2413_17 + x_3664_17 + x_4774_17 + x_3759_17 + x_3968_17 + x_4270_17 + x_4129_17 + x_4671_17 + x_4152_17 + x_4379_17 + x_4812_17 + x_4513_17 + x_4584_17 + x_4585_17 + x_4212_17 + x_4272_17 + x_4144_17 + x_3572_17 + x_4818_17 + x_4659_17 + x_3253_17 + x_4352_17 + x_3350_17 + x_4741_17 + x_4455_17 + x_4328_17 - load_17 = 0
ll_18: x_4688_18 + x_4805_18 + x_4824_18 + x_4527_18 + x_4123_18 + x_3470_18 + x_4000_18 + x_4870_18 + x_4867_18 + x_4256_18 + x_4789_18 + x_4026_18 + x_4639_18 + x_4598_18 + x_4772_18 + x_4781_18 + x_4624_18 + x_4877_18 + x_4255_18 + x_4631_18 + x_3740_18 + x_4637_18 + x_3691_18 + x_4709_18 + x_4758_18 + x_4548_18 + x_4423_18 + x_4331_18 + x_4744_18 + x_4210_18 + x_505_18 + x_3161_18 + x_4359_18 + x_4488_18 + x_4463_18 + x_4651_18 + x_4771_18 + x_4847_18 + x_4734_18 + x_4432_18 + x_4621_18 + x_4710_18 + x_4865_18 + x_4647_18 + x_3381_18 + x_3209_18 + x_4453_18 + x_2620_18 + x_4130_18 + x_4354_18 + x_4433_18 + x_4518_18 + x_4644_18 + x_3840_18 + x_2413_18 + x_3664_18 + x_4774_18 + x_3759_18 + x_3968_18 + x_4270_18 + x_4129_18 + x_4671_18 + x_4152_18 + x_4379_18 + x_4812_18 + x_4513_18 + x_4584_18 + x_4585_18 + x_4212_18 + x_4272_18 + x_4144_18 + x_3572_18 + x_4818_18 + x_4659_18 + x_3253_18 + x_4352_18 + x_3350_18 + x_4741_18 + x_4455_18 + x_4328_18 - load_18 = 0
ll_19: x_4688_19 + x_4805_19 + x_4824_19 + x_4527_19 + x_4123_19 + x_3470_19 + x_4000_19 + x_4870_19 + x_4867_19 + x_4256_19 + x_4789_19 + x_4026_19 + x_4639_19 + x_4598_19 + x_4772_19 + x_4781_19 + x_4624_19 + x_4877_19 + x_4255_19 + x_4631_19 + x_3740_19 + x_4637_19 + x_3691_19 + x_4709_19 + x_4758_19 + x_4548_19 + x_4423_19 + x_4331_19 + x_4744_19 + x_4210_19 + x_505_19 + x_3161_19 + x_4359_19 + x_4488_19 + x_4463_19 + x_4651_19 + x_4771_19 + x_4847_19 + x_4734_19 + x_4432_19 + x_4621_19 + x_4710_19 + x_4865_19 + x_4647_19 + x_3381_19 + x_3209_19 + x_4453_19 + x_2620_19 + x_4130_19 + x_4354_19 + x_4433_19 + x_4518_19 + x_4644_19 + x_3840_19 + x_2413_19 + x_3664_19 + x_4774_19 + x_3759_19 + x_3968_19 + x_4270_19 + x_4129_19 + x_4671_19 + x_4152_19 + x_4379_19 + x_4812_19 + x_4513_19 + x_4584_19 + x_4585_19 + x_4212_19 + x_4272_19 + x_4144_19 + x_3572_19 + x_4818_19 + x_4659_19 + x_3253_19 + x_4352_19 + x_3350_19 + x_4741_19 + x_4455_19 + x_4328_19 - load_19 = 0
ll_20: x_4688_20 + x_4805_20 + x_4824_20 + x_4527_20 + x_4123_20 + x_3470_20 + x_4000_20 + x_4870_20 + x_4867_20 + x_4256_20 + x_4789_20 + x_4026_20 + x_4639_20 + x_4598_20 + x_4772_20 + x_4781_20 + x_4624_20 + x_4877_20 + x_4255_20 + x_4631_20 + x_3740_20 + x_4637_20 + x_3691_20 + x_4709_20 + x_4758_20 + x_4548_20 + x_4423_20 + x_4331_20 + x_4744_20 + x_4210_20 + x_505_20 + x_3161_20 + x_4359_20 + x_4488_20 + x_4463_20 + x_4651_20 + x_4771_20 + x_4847_20 + x_4734_20 + x_4432_20 + x_4621_20 + x_4710_20 + x_4865_20 + x_4647_20 + x_3381_20 + x_3209_20 + x_4453_20 + x_2620_20 + x_4130_20 + x_4354_20 + x_4433_20 + x_4518_20 + x_4644_20 + x_3840_20 + x_2413_20 + x_3664_20 + x_4774_20 + x_3759_20 + x_3968_20 + x_4270_20 + x_4129_20 + x_4671_20 + x_4152_20 + x_4379_20 + x_4812_20 + x_4513_20 + x_4584_20 + x_4585_20 + x_4212_20 + x_4272_20 + x_4144_20 + x_3572_20 + x_4818_20 + x_4659_20 + x_3253_20 + x_4352_20 + x_3350_20 + x_4741_20 + x_4455_20 + x_4328_20 - load_20 = 0
ll_21: x_4688_21 + x_4805_21 + x_4824_21 + x_4527_21 + x_4123_21 + x_3470_21 + x_4000_21 + x_4870_21 + x_4867_21 + x_4256_21 + x_4789_21 + x_4026_21 + x_4639_21 + x_4598_21 + x_4772_21 + x_4781_21 + x_4624_21 + x_4877_21 + x_4255_21 + x_4631_21 + x_3740_21 + x_4637_21 + x_3691_21 + x_4709_21 + x_4758_21 + x_4548_21 + x_4423_21 + x_4331_21 + x_4744_21 + x_4210_21 + x_505_21 + x_3161_21 + x_4359_21 + x_4488_21 + x_4463_21 + x_4651_21 + x_4771_21 + x_4847_21 + x_4734_21 + x_4432_21 + x_4621_21 + x_4710_21 + x_4865_21 + x_4647_21 + x_3381_21 + x_3209_21 + x_4453_21 + x_2620_21 + x_4130_21 + x_4354_21 + x_4433_21 + x_4518_21 + x_4644_21 + x_3840_21 + x_2413_21 + x_3664_21 + x_4774_21 + x_3759_21 + x_3968_21 + x_4270_21 + x_4129_21 + x_4671_21 + x_4152_21 + x_4379_21 + x_4812_21 + x_4513_21 + x_4584_21 + x_4585_21 + x_4212_21 + x_4272_21 + x_4144_21 + x_3572_21 + x_4818_21 + x_4659_21 + x_3253_21 + x_4352_21 + x_3350_21 + x_4741_21 + x_4455_21 + x_4328_21 - load_21 = 0
ll_22: x_4688_22 + x_4805_22 + x_4824_22 + x_4527_22 + x_4123_22 + x_3470_22 + x_4000_22 + x_4870_22 + x_4867_22 + x_4256_22 + x_4789_22 + x_4026_22 + x_4639_22 + x_4598_22 + x_4772_22 + x_4781_22 + x_4624_22 + x_4877_22 + x_4255_22 + x_4631_22 + x_3740_22 + x_4637_22 + x_3691_22 + x_4709_22 + x_4758_22 + x_4548_22 + x_4423_22 + x_4331_22 + x_4744_22 + x_4210_22 + x_505_22 + x_3161_22 + x_4359_22 + x_4488_22 + x_4463_22 + x_4651_22 + x_4771_22 + x_4847_22 + x_4734_22 + x_4432_22 + x_4621_22 + x_4710_22 + x_4865_22 + x_4647_22 + x_3381_22 + x_3209_22 + x_4453_22 + x_2620_22 + x_4130_22 + x_4354_22 + x_4433_22 + x_4518_22 + x_4644_22 + x_3840_22 + x_2413_22 + x_3664_22 + x_4774_22 + x_3759_22 + x_3968_22 + x_4270_22 + x_4129_22 + x_4671_22 + x_4152_22 + x_4379_22 + x_4812_22 + x_4513_22 + x_4584_22 + x_4585_22 + x_4212_22 + x_4272_22 + x_4144_22 + x_3572_22 + x_4818_22 + x_4659_22 + x_3253_22 + x_4352_22 + x_3350_22 + x_4741_22 + x_4455_22 + x_4328_22 - load_22 = 0
ll_23: x_4688_23 + x_4805_23 + x_4824_23 + x_4527_23 + x_4123_23 + x_3470_23 + x_4000_23 + x_4870_23 + x_4867_23 + x_4256_23 + x_4789_23 + x_4026_23 + x_4639_23 + x_4598_23 + x_4772_23 + x_4781_23 + x_4624_23 + x_4877_23 + x_4255_23 + x_4631_23 + x_3740_23 + x_4637_23 + x_3691_23 + x_4709_23 + x_4758_23 + x_4548_23 + x_4423_23 + x_4331_23 + x_4744_23 + x_4210_23 + x_505_23 + x_3161_23 + x_4359_23 + x_4488_23 + x_4463_23 + x_4651_23 + x_4771_23 + x_4847_23 + x_4734_23 + x_4432_23 + x_4621_23 + x_4710_23 + x_4865_23 + x_4647_23 + x_3381_23 + x_3209_23 + x_4453_23 + x_2620_23 + x_4130_23 + x_4354_23 + x_4433_23 + x_4518_23 + x_4644_23 + x_3840_23 + x_2413_23 + x_3664_23 + x_4774_23 + x_3759_23 + x_3968_23 + x_4270_23 + x_4129_23 + x_4671_23 + x_4152_23 + x_4379_23 + x_4812_23 + x_4513_23 + x_4584_23 + x_4585_23 + x_4212_23 + x_4272_23 + x_4144_23 + x_3572_23 + x_4818_23 + x_4659_23 + x_3253_23 + x_4352_23 + x_3350_23 + x_4741_23 + x_4455_23 + x_4328_23 - load_23 = 0
ll_24: x_4688_24 + x_4805_24 + x_4824_24 + x_4527_24 + x_4123_24 + x_3470_24 + x_4000_24 + x_4870_24 + x_4867_24 + x_4256_24 + x_4789_24 + x_4026_24 + x_4639_24 + x_4598_24 + x_4772_24 + x_4781_24 + x_4624_24 + x_4877_24 + x_4255_24 + x_4631_24 + x_3740_24 + x_4637_24 + x_3691_24 + x_4709_24 + x_4758_24 + x_4548_24 + x_4423_24 + x_4331_24 + x_4744_24 + x_4210_24 + x_505_24 + x_3161_24 + x_4359_24 + x_4488_24 + x_4463_24 + x_4651_24 + x_4771_24 + x_4847_24 + x_4734_24 + x_4432_24 + x_4621_24 + x_4710_24 + x_4865_24 + x_4647_24 + x_3381_24 + x_3209_24 + x_4453_24 + x_2620_24 + x_4130_24 + x_4354_24 + x_4433_24 + x_4518_24 + x_4644_24 + x_3840_24 + x_2413_24 + x_3664_24 + x_4774_24 + x_3759_24 + x_3968_24 + x_4270_24 + x_4129_24 + x_4671_24 + x_4152_24 + x_4379_24 + x_4812_24 + x_4513_24 + x_4584_24 + x_4585_24 + x_4212_24 + x_4272_24 + x_4144_24 + x_3572_24 + x_4818_24 + x_4659_24 + x_3253_24 + x_4352_24 + x_3350_24 + x_4741_24 + x_4455_24 + x_4328_24 - load_24 = 0
ll_25: x_4688_25 + x_4805_25 + x_4824_25 + x_4527_25 + x_4123_25 + x_3470_25 + x_4000_25 + x_4870_25 + x_4867_25 + x_4256_25 + x_4789_25 + x_4026_25 + x_4639_25 + x_4598_25 + x_4772_25 + x_4781_25 + x_4624_25 + x_4877_25 + x_4255_25 + x_4631_25 + x_3740_25 + x_4637_25 + x_3691_25 + x_4709_25 + x_4758_25 + x_4548_25 + x_4423_25 + x_4331_25 + x_4744_25 + x_4210_25 + x_505_25 + x_3161_25 + x_4359_25 + x_4488_25 + x_4463_25 + x_4651_25 + x_4771_25 + x_4847_25 + x_4734_25 + x_4432_25 + x_4621_25 + x_4710_25 + x_4865_25 + x_4647_25 + x_3381_25 + x_3209_25 + x_4453_25 + x_2620_25 + x_4130_25 + x_4354_25 + x_4433_25 + x_4518_25 + x_4644_25 + x_3840_25 + x_2413_25 + x_3664_25 + x_4774_25 + x_3759_25 + x_3968_25 + x_4270_25 + x_4129_25 + x_4671_25 + x_4152_25 + x_4379_25 + x_4812_25 + x_4513_25 + x_4584_25 + x_4585_25 + x_4212_25 + x_4272_25 + x_4144_25 + x_3572_25 + x_4818_25 + x_4659_25 + x_3253_25 + x_4352_25 + x_3350_25 + x_4741_25 + x_4455_25 + x_4328_25 - load_25 = 0
ll_26: x_4688_26 + x_4805_26 + x_4824_26 + x_4527_26 + x_4123_26 + x_3470_26 + x_4000_26 + x_4870_26 + x_4867_26 + x_4256_26 + x_4789_26 + x_4026_26 + x_4639_26 + x_4598_26 + x_4772_26 + x_4781_26 + x_4624_26 + x_4877_26 + x_4255_26 + x_4631_26 + x_3740_26 + x_4637_26 + x_3691_26 + x_4709_26 + x_4758_26 + x_4548_26 + x_4423_26 + x_4331_26 + x_4744_26 + x_4210_26 + x_505_26 + x_3161_26 + x_4359_26 + x_4488_26 + x_4463_26 + x_4651_26 + x_4771_26 + x_4847_26 + x_4734_26 + x_4432_26 + x_4621_26 + x_4710_26 + x_4865_26 + x_4647_26 + x_3381_26 + x_3209_26 + x_4453_26 + x_2620_26 + x_4130_26 + x_4354_26 + x_4433_26 + x_4518_26 + x_4644_26 + x_3840_26 + x_2413_26 + x_3664_26 + x_4774_26 + x_3759_26 + x_3968_26 + x_4270_26 + x_4129_26 + x_4671_26 + x_4152_26 + x_4379_26 + x_4812_26 + x_4513_26 + x_4584_26 + x_4585_26 + x_4212_26 + x_4272_26 + x_4144_26 + x_3572_26 + x_4818_26 + x_4659_26 + x_3253_26 + x_4352_26 + x_3350_26 + x_4741_26 + x_4455_26 + x_4328_26 - load_26 = 0
ll_27: x_4688_27 + x_4805_27 + x_4824_27 + x_4527_27 + x_4123_27 + x_3470_27 + x_4000_27 + x_4870_27 + x_4867_27 + x_4256_27 + x_4789_27 + x_4026_27 + x_4639_27 + x_4598_27 + x_4772_27 + x_4781_27 + x_4624_27 + x_4877_27 + x_4255_27 + x_4631_27 + x_3740_27 + x_4637_27 + x_3691_27 + x_4709_27 + x_4758_27 + x_4548_27 + x_4423_27 + x_4331_27 + x_4744_27 + x_4210_27 + x_505_27 + x_3161_27 + x_4359_27 + x_4488_27 + x_4463_27 + x_4651_27 + x_4771_27 + x_4847_27 + x_4734_27 + x_4432_27 + x_4621_27 + x_4710_27 + x_4865_27 + x_4647_27 + x_3381_27 + x_3209_27 + x_4453_27 + x_2620_27 + x_4130_27 + x_4354_27 + x_4433_27 + x_4518_27 + x_4644_27 + x_3840_27 + x_2413_27 + x_3664_27 + x_4774_27 + x_3759_27 + x_3968_27 + x_4270_27 + x_4129_27 + x_4671_27 + x_4152_27 + x_4379_27 + x_4812_27 + x_4513_27 + x_4584_27 + x_4585_27 + x_4212_27 + x_4272_27 + x_4144_27 + x_3572_27 + x_4818_27 + x_4659_27 + x_3253_27 + x_4352_27 + x_3350_27 + x_4741_27 + x_4455_27 + x_4328_27 - load_27 = 0
ll_28: x_4688_28 + x_4805_28 + x_4824_28 + x_4527_28 + x_4123_28 + x_3470_28 + x_4000_28 + x_4870_28 + x_4867_28 + x_4256_28 + x_4789_28 + x_4026_28 + x_4639_28 + x_4598_28 + x_4772_28 + x_4781_28 + x_4624_28 + x_4877_28 + x_4255_28 + x_4631_28 + x_3740_28 + x_4637_28 + x_3691_28 + x_4709_28 + x_4758_28 + x_4548_28 + x_4423_28 + x_4331_28 + x_4744_28 + x_4210_28 + x_505_28 + x_3161_28 + x_4359_28 + x_4488_28 + x_4463_28 + x_4651_28 + x_4771_28 + x_4847_28 + x_4734_28 + x_4432_28 + x_4621_28 + x_4710_28 + x_4865_28 + x_4647_28 + x_3381_28 + x_3209_28 + x_4453_28 + x_2620_28 + x_4130_28 + x_4354_28 + x_4433_28 + x_4518_28 + x_4644_28 + x_3840_28 + x_2413_28 + x_3664_28 + x_4774_28 + x_3759_28 + x_3968_28 + x_4270_28 + x_4129_28 + x_4671_28 + x_4152_28 + x_4379_28 + x_4812_28 + x_4513_28 + x_4584_28 + x_4585_28 + x_4212_28 + x_4272_28 + x_4144_28 + x_3572_28 + x_4818_28 + x_4659_28 + x_3253_28 + x_4352_28 + x_3350_28 + x_4741_28 + x_4455_28 + x_4328_28 - load_28 = 0
ll_29: x_4688_29 + x_4805_29 + x_4824_29 + x_4527_29 + x_4123_29 + x_3470_29 + x_4000_29 + x_4870_29 + x_4867_29 + x_4256_29 + x_4789_29 + x_4026_29 + x_4639_29 + x_4598_29 + x_4772_29 + x_4781_29 + x_4624_29 + x_4877_29 + x_4255_29 + x_4631_29 + x_3740_29 + x_4637_29 + x_3691_29 + x_4709_29 + x_4758_29 + x_4548_29 + x_4423_29 + x_4331_29 + x_4744_29 + x_4210_29 + x_505_29 + x_3161_29 + x_4359_29 + x_4488_29 + x_4463_29 + x_4651_29 + x_4771_29 + x_4847_29 + x_4734_29 + x_4432_29 + x_4621_29 + x_4710_29 + x_4865_29 + x_4647_29 + x_3381_29 + x_3209_29 + x_4453_29 + x_2620_29 + x_4130_29 + x_4354_29 + x_4433_29 + x_4518_29 + x_4644_29 + x_3840_29 + x_2413_29 + x_3664_29 + x_4774_29 + x_3759_29 + x_3968_29 + x_4270_29 + x_4129_29 + x_4671_29 + x_4152_29 + x_4379_29 + x_4812_29 + x_4513_29 + x_4584_29 + x_4585_29 + x_4212_29 + x_4272_29 + x_4144_29 + x_3572_29 + x_4818_29 + x_4659_29 + x_3253_29 + x_4352_29 + x_3350_29 + x_4741_29 + x_4455_29 + x_4328_29 - load_29 = 0
ll_30: x_4688_30 + x_4805_30 + x_4824_30 + x_4527_30 + x_4123_30 + x_3470_30 + x_4000_30 + x_4870_30 + x_4867_30 + x_4256_30 + x_4789_30 + x_4026_30 + x_4639_30 + x_4598_30 + x_4772_30 + x_4781_30 + x_4624_30 + x_4877_30 + x_4255_30 + x_4631_30 + x_3740_30 + x_4637_30 + x_3691_30 + x_4709_30 + x_4758_30 + x_4548_30 + x_4423_30 + x_4331_30 + x_4744_30 + x_4210_30 + x_505_30 + x_3161_30 + x_4359_30 + x_4488_30 + x_4463_30 + x_4651_30 + x_4771_30 + x_4847_30 + x_4734_30 + x_4432_30 + x_4621_30 + x_4710_30 + x_4865_30 + x_4647_30 + x_3381_30 + x_3209_30 + x_4453_30 + x_2620_30 + x_4130_30 + x_4354_30 + x_4433_30 + x_4518_30 + x_4644_30 + x_3840_30 + x_2413_30 + x_3664_30 + x_4774_30 + x_3759_30 + x_3968_30 + x_4270_30 + x_4129_30 + x_4671_30 + x_4152_30 + x_4379_30 + x_4812_30 + x_4513_30 + x_4584_30 + x_4585_30 + x_4212_30 + x_4272_30 + x_4144_30 + x_3572_30 + x_4818_30 + x_4659_30 + x_3253_30 + x_4352_30 + x_3350_30 + x_4741_30 + x_4455_30 + x_4328_30 - load_30 = 0
ll_31: x_4688_31 + x_4805_31 + x_4824_31 + x_4527_31 + x_4123_31 + x_3470_31 + x_4000_31 + x_4870_31 + x_4867_31 + x_4256_31 + x_4789_31 + x_4026_31 + x_4639_31 + x_4598_31 + x_4772_31 + x_4781_31 + x_4624_31 + x_4877_31 + x_4255_31 + x_4631_31 + x_3740_31 + x_4637_31 + x_3691_31 + x_4709_31 + x_4758_31 + x_4548_31 + x_4423_31 + x_4331_31 + x_4744_31 + x_4210_31 + x_505_31 + x_3161_31 + x_4359_31 + x_4488_31 + x_4463_31 + x_4651_31 + x_4771_31 + x_4847_31 + x_4734_31 + x_4432_31 + x_4621_31 + x_4710_31 + x_4865_31 + x_4647_31 + x_3381_31 + x_3209_31 + x_4453_31 + x_2620_31 + x_4130_31 + x_4354_31 + x_4433_31 + x_4518_31 + x_4644_31 + x_3840_31 + x_2413_31 + x_3664_31 + x_4774_31 + x_3759_31 + x_3968_31 + x_4270_31 + x_4129_31 + x_4671_31 + x_4152_31 + x_4379_31 + x_4812_31 + x_4513_31 + x_4584_31 + x_4585_31 + x_4212_31 + x_4272_31 + x_4144_31 + x_3572_31 + x_4818_31 + x_4659_31 + x_3253_31 + x_4352_31 + x_3350_31 + x_4741_31 + x_4455_31 + x_4328_31 - load_31 = 0
ll_32: x_4688_32 + x_4805_32 + x_4824_32 + x_4527_32 + x_4123_32 + x_3470_32 + x_4000_32 + x_4870_32 + x_4867_32 + x_4256_32 + x_4789_32 + x_4026_32 + x_4639_32 + x_4598_32 + x_4772_32 + x_4781_32 + x_4624_32 + x_4877_32 + x_4255_32 + x_4631_32 + x_3740_32 + x_4637_32 + x_3691_32 + x_4709_32 + x_4758_32 + x_4548_32 + x_4423_32 + x_4331_32 + x_4744_32 + x_4210_32 + x_505_32 + x_3161_32 + x_4359_32 + x_4488_32 + x_4463_32 + x_4651_32 + x_4771_32 + x_4847_32 + x_4734_32 + x_4432_32 + x_4621_32 + x_4710_32 + x_4865_32 + x_4647_32 + x_3381_32 + x_3209_32 + x_4453_32 + x_2620_32 + x_4130_32 + x_4354_32 + x_4433_32 + x_4518_32 + x_4644_32 + x_3840_32 + x_2413_32 + x_3664_32 + x_4774_32 + x_3759_32 + x_3968_32 + x_4270_32 + x_4129_32 + x_4671_32 + x_4152_32 + x_4379_32 + x_4812_32 + x_4513_32 + x_4584_32 + x_4585_32 + x_4212_32 + x_4272_32 + x_4144_32 + x_3572_32 + x_4818_32 + x_4659_32 + x_3253_32 + x_4352_32 + x_3350_32 + x_4741_32 + x_4455_32 + x_4328_32 - load_32 = 0
ll_33: x_4688_33 + x_4805_33 + x_4824_33 + x_4527_33 + x_4123_33 + x_3470_33 + x_4000_33 + x_4870_33 + x_4867_33 + x_4256_33 + x_4789_33 + x_4026_33 + x_4639_33 + x_4598_33 + x_4772_33 + x_4781_33 + x_4624_33 + x_4877_33 + x_4255_33 + x_4631_33 + x_3740_33 + x_4637_33 + x_3691_33 + x_4709_33 + x_4758_33 + x_4548_33 + x_4423_33 + x_4331_33 + x_4744_33 + x_4210_33 + x_505_33 + x_3161_33 + x_4359_33 + x_4488_33 + x_4463_33 + x_4651_33 + x_4771_33 + x_4847_33 + x_4734_33 + x_4432_33 + x_4621_33 + x_4710_33 + x_4865_33 + x_4647_33 + x_3381_33 + x_3209_33 + x_4453_33 + x_2620_33 + x_4130_33 + x_4354_33 + x_4433_33 + x_4518_33 + x_4644_33 + x_3840_33 + x_2413_33 + x_3664_33 + x_4774_33 + x_3759_33 + x_3968_33 + x_4270_33 + x_4129_33 + x_4671_33 + x_4152_33 + x_4379_33 + x_4812_33 + x_4513_33 + x_4584_33 + x_4585_33 + x_4212_33 + x_4272_33 + x_4144_33 + x_3572_33 + x_4818_33 + x_4659_33 + x_3253_33 + x_4352_33 + x_3350_33 + x_4741_33 + x_4455_33 + x_4328_33 - load_33 = 0
ll_34: x_4688_34 + x_4805_34 + x_4824_34 + x_4527_34 + x_4123_34 + x_3470_34 + x_4000_34 + x_4870_34 + x_4867_34 + x_4256_34 + x_4789_34 + x_4026_34 + x_4639_34 + x_4598_34 + x_4772_34 + x_4781_34 + x_4624_34 + x_4877_34 + x_4255_34 + x_4631_34 + x_3740_34 + x_4637_34 + x_3691_34 + x_4709_34 + x_4758_34 + x_4548_34 + x_4423_34 + x_4331_34 + x_4744_34 + x_4210_34 + x_505_34 + x_3161_34 + x_4359_34 + x_4488_34 + x_4463_34 + x_4651_34 + x_4771_34 + x_4847_34 + x_4734_34 + x_4432_34 + x_4621_34 + x_4710_34 + x_4865_34 + x_4647_34 + x_3381_34 + x_3209_34 + x_4453_34 + x_2620_34 + x_4130_34 + x_4354_34 + x_4433_34 + x_4518_34 + x_4644_34 + x_3840_34 + x_2413_34 + x_3664_34 + x_4774_34 + x_3759_34 + x_3968_34 + x_4270_34 + x_4129_34 + x_4671_34 + x_4152_34 + x_4379_34 + x_4812_34 + x_4513_34 + x_4584_34 + x_4585_34 + x_4212_34 + x_4272_34 + x_4144_34 + x_3572_34 + x_4818_34 + x_4659_34 + x_3253_34 + x_4352_34 + x_3350_34 + x_4741_34 + x_4455_34 + x_4328_34 - load_34 = 0
ll_37: x_4688_37 + x_4805_37 + x_4824_37 + x_4527_37 + x_4123_37 + x_3470_37 + x_4000_37 + x_4870_37 + x_4867_37 + x_4256_37 + x_4789_37 + x_4026_37 + x_4639_37 + x_4598_37 + x_4772_37 + x_4781_37 + x_4624_37 + x_4877_37 + x_4255_37 + x_4631_37 + x_3740_37 + x_4637_37 + x_3691_37 + x_4709_37 + x_4758_37 + x_4548_37 + x_4423_37 + x_4331_37 + x_4744_37 + x_4210_37 + x_505_37 + x_3161_37 + x_4359_37 + x_4488_37 + x_4463_37 + x_4651_37 + x_4771_37 + x_4847_37 + x_4734_37 + x_4432_37 + x_4621_37 + x_4710_37 + x_4865_37 + x_4647_37 + x_3381_37 + x_3209_37 + x_4453_37 + x_2620_37 + x_4130_37 + x_4354_37 + x_4433_37 + x_4518_37 + x_4644_37 + x_3840_37 + x_2413_37 + x_3664_37 + x_4774_37 + x_3759_37 + x_3968_37 + x_4270_37 + x_4129_37 + x_4671_37 + x_4152_37 + x_4379_37 + x_4812_37 + x_4513_37 + x_4584_37 + x_4585_37 + x_4212_37 + x_4272_37 + x_4144_37 + x_3572_37 + x_4818_37 + x_4659_37 + x_3253_37 + x_4352_37 + x_3350_37 + x_4741_37 + x_4455_37 + x_4328_37 - load_37 = 0
ll_38: x_4688_38 + x_4805_38 + x_4824_38 + x_4527_38 + x_4123_38 + x_3470_38 + x_4000_38 + x_4870_38 + x_4867_38 + x_4256_38 + x_4789_38 + x_4026_38 + x_4639_38 + x_4598_38 + x_4772_38 + x_4781_38 + x_4624_38 + x_4877_38 + x_4255_38 + x_4631_38 + x_3740_38 + x_4637_38 + x_3691_38 + x_4709_38 + x_4758_38 + x_4548_38 + x_4423_38 + x_4331_38 + x_4744_38 + x_4210_38 + x_505_38 + x_3161_38 + x_4359_38 + x_4488_38 + x_4463_38 + x_4651_38 + x_4771_38 + x_4847_38 + x_4734_38 + x_4432_38 + x_4621_38 + x_4710_38 + x_4865_38 + x_4647_38 + x_3381_38 + x_3209_38 + x_4453_38 + x_2620_38 + x_4130_38 + x_4354_38 + x_4433_38 + x_4518_38 + x_4644_38 + x_3840_38 + x_2413_38 + x_3664_38 + x_4774_38 + x_3759_38 + x_3968_38 + x_4270_38 + x_4129_38 + x_4671_38 + x_4152_38 + x_4379_38 + x_4812_38 + x_4513_38 + x_4584_38 + x_4585_38 + x_4212_38 + x_4272_38 + x_4144_38 + x_3572_38 + x_4818_38 + x_4659_38 + x_3253_38 + x_4352_38 + x_3350_38 + x_4741_38 + x_4455_38 + x_4328_38 - load_38 = 0
ll_39: x_4688_39 + x_4805_39 + x_4824_39 + x_4527_39 + x_4123_39 + x_3470_39 + x_4000_39 + x_4870_39 + x_4867_39 + x_4256_39 + x_4789_39 + x_4026_39 + x_4639_39 + x_4598_39 + x_4772_39 + x_4781_39 + x_4624_39 + x_4877_39 + x_4255_39 + x_4631_39 + x_3740_39 + x_4637_39 + x_3691_39 + x_4709_39 + x_4758_39 + x_4548_39 + x_4423_39 + x_4331_39 + x_4744_39 + x_4210_39 + x_505_39 + x_3161_39 + x_4359_39 + x_4488_39 + x_4463_39 + x_4651_39 + x_4771_39 + x_4847_39 + x_4734_39 + x_4432_39 + x_4621_39 + x_4710_39 + x_4865_39 + x_4647_39 + x_3381_39 + x_3209_39 + x_4453_39 + x_2620_39 + x_4130_39 + x_4354_39 + x_4433_39 + x_4518_39 + x_4644_39 + x_3840_39 + x_2413_39 + x_3664_39 + x_4774_39 + x_3759_39 + x_3968_39 + x_4270_39 + x_4129_39 + x_4671_39 + x_4152_39 + x_4379_39 + x_4812_39 + x_4513_39 + x_4584_39 + x_4585_39 + x_4212_39 + x_4272_39 + x_4144_39 + x_3572_39 + x_4818_39 + x_4659_39 + x_3253_39 + x_4352_39 + x_3350_39 + x_4741_39 + x_4455_39 + x_4328_39 - load_39 = 0
ll_40: x_4688_40 + x_4805_40 + x_4824_40 + x_4527_40 + x_4123_40 + x_3470_40 + x_4000_40 + x_4870_40 + x_4867_40 + x_4256_40 + x_4789_40 + x_4026_40 + x_4639_40 + x_4598_40 + x_4772_40 + x_4781_40 + x_4624_40 + x_4877_40 + x_4255_40 + x_4631_40 + x_3740_40 + x_4637_40 + x_3691_40 + x_4709_40 + x_4758_40 + x_4548_40 + x_4423_40 + x_4331_40 + x_4744_40 + x_4210_40 + x_505_40 + x_3161_40 + x_4359_40 + x_4488_40 + x_4463_40 + x_4651_40 + x_4771_40 + x_4847_40 + x_4734_40 + x_4432_40 + x_4621_40 + x_4710_40 + x_4865_40 + x_4647_40 + x_3381_40 + x_3209_40 + x_4453_40 + x_2620_40 + x_4130_40 + x_4354_40 + x_4433_40 + x_4518_40 + x_4644_40 + x_3840_40 + x_2413_40 + x_3664_40 + x_4774_40 + x_3759_40 + x_3968_40 + x_4270_40 + x_4129_40 + x_4671_40 + x_4152_40 + x_4379_40 + x_4812_40 + x_4513_40 + x_4584_40 + x_4585_40 + x_4212_40 + x_4272_40 + x_4144_40 + x_3572_40 + x_4818_40 + x_4659_40 + x_3253_40 + x_4352_40 + x_3350_40 + x_4741_40 + x_4455_40 + x_4328_40 - load_40 = 0
ll_41: x_4688_41 + x_4805_41 + x_4824_41 + x_4527_41 + x_4123_41 + x_3470_41 + x_4000_41 + x_4870_41 + x_4867_41 + x_4256_41 + x_4789_41 + x_4026_41 + x_4639_41 + x_4598_41 + x_4772_41 + x_4781_41 + x_4624_41 + x_4877_41 + x_4255_41 + x_4631_41 + x_3740_41 + x_4637_41 + x_3691_41 + x_4709_41 + x_4758_41 + x_4548_41 + x_4423_41 + x_4331_41 + x_4744_41 + x_4210_41 + x_505_41 + x_3161_41 + x_4359_41 + x_4488_41 + x_4463_41 + x_4651_41 + x_4771_41 + x_4847_41 + x_4734_41 + x_4432_41 + x_4621_41 + x_4710_41 + x_4865_41 + x_4647_41 + x_3381_41 + x_3209_41 + x_4453_41 + x_2620_41 + x_4130_41 + x_4354_41 + x_4433_41 + x_4518_41 + x_4644_41 + x_3840_41 + x_2413_41 + x_3664_41 + x_4774_41 + x_3759_41 + x_3968_41 + x_4270_41 + x_4129_41 + x_4671_41 + x_4152_41 + x_4379_41 + x_4812_41 + x_4513_41 + x_4584_41 + x_4585_41 + x_4212_41 + x_4272_41 + x_4144_41 + x_3572_41 + x_4818_41 + x_4659_41 + x_3253_41 + x_4352_41 + x_3350_41 + x_4741_41 + x_4455_41 + x_4328_41 - load_41 = 0
ll_42: x_4688_42 + x_4805_42 + x_4824_42 + x_4527_42 + x_4123_42 + x_3470_42 + x_4000_42 + x_4870_42 + x_4867_42 + x_4256_42 + x_4789_42 + x_4026_42 + x_4639_42 + x_4598_42 + x_4772_42 + x_4781_42 + x_4624_42 + x_4877_42 + x_4255_42 + x_4631_42 + x_3740_42 + x_4637_42 + x_3691_42 + x_4709_42 + x_4758_42 + x_4548_42 + x_4423_42 + x_4331_42 + x_4744_42 + x_4210_42 + x_505_42 + x_3161_42 + x_4359_42 + x_4488_42 + x_4463_42 + x_4651_42 + x_4771_42 + x_4847_42 + x_4734_42 + x_4432_42 + x_4621_42 + x_4710_42 + x_4865_42 + x_4647_42 + x_3381_42 + x_3209_42 + x_4453_42 + x_2620_42 + x_4130_42 + x_4354_42 + x_4433_42 + x_4518_42 + x_4644_42 + x_3840_42 + x_2413_42 + x_3664_42 + x_4774_42 + x_3759_42 + x_3968_42 + x_4270_42 + x_4129_42 + x_4671_42 + x_4152_42 + x_4379_42 + x_4812_42 + x_4513_42 + x_4584_42 + x_4585_42 + x_4212_42 + x_4272_42 + x_4144_42 + x_3572_42 + x_4818_42 + x_4659_42 + x_3253_42 + x_4352_42 + x_3350_42 + x_4741_42 + x_4455_42 + x_4328_42 - load_42 = 0
mll_0: load_0 <= 80
mll_1: load_1 <= 52
mll_2: load_2 <= 57
mll_3: load_3 <= 80
mll_4: load_4 <= 8
mll_5: load_5 <= 46
mll_6: load_6 <= 53
mll_7: load_7 <= 35
mll_8: load_8 <= 55
mll_9: load_9 <= 80
mll_10: load_10 <= 72
mll_11: load_11 <= 34
mll_12: load_12 <= 80
mll_13: load_13 <= 57
mll_14: load_14 <= 80
mll_15: load_15 <= 35
mll_16: load_16 <= 80
mll_17: load_17 <= 74
mll_18: load_18 <= 80
mll_19: load_19 <= 53
mll_20: load_20 <= 80
mll_21: load_21 <= 62
mll_22: load_22 <= 80
mll_23: load_23 <= 58
mll_24: load_24 <= 80
mll_25: load_25 <= 80
mll_26: load_26 <= 80
mll_27: load_27 <= 80
mll_28: load_28 <= 80
mll_29: load_29 <= 80
mll_30: load_30 <= 52
mll_31: load_31 <= 51
mll_32: load_32 <= 80
mll_33: load_33 <= 80
mll_34: load_34 <= 55
mll_37: load_37 <= 80
mll_38: load_38 <= 80
mll_39: load_39 <= 80
mll_40: load_40 <= 80
mll_41: load_41 <= 28
mll_42: load_42 <= 57
mldc_Bismarck: 4 restore_dc_4688_Bismarck + 5 restore_dc_4805_Bismarck + 5 restore_dc_4824_Bismarck + 3 restore_dc_4527_Bismarck + 5 restore_dc_4123_Bismarck + 4 restore_dc_3470_Bismarck + 1 restore_dc_4000_Bismarck + 5 restore_dc_4870_Bismarck + 1 restore_dc_4867_Bismarck + 1 restore_dc_4256_Bismarck + 5 restore_dc_4789_Bismarck + 3 restore_dc_4026_Bismarck + 5 restore_dc_4639_Bismarck + 3 restore_dc_4598_Bismarck + 4 restore_dc_4772_Bismarck + 1 restore_dc_4781_Bismarck + 3 restore_dc_4624_Bismarck + 4 restore_dc_4877_Bismarck + 3 restore_dc_4255_Bismarck + 2 restore_dc_4631_Bismarck + 1 restore_dc_3740_Bismarck + 1 restore_dc_4637_Bismarck + 1 restore_dc_3691_Bismarck + 5 restore_dc_4709_Bismarck + 2 restore_dc_4758_Bismarck + 1 restore_dc_4548_Bismarck + 1 restore_dc_4423_Bismarck + 3 restore_dc_4331_Bismarck + 3 restore_dc_4744_Bismarck + 5 restore_dc_4210_Bismarck + 2 restore_dc_505_Bismarck + 3 restore_dc_3161_Bismarck + 2 restore_dc_4359_Bismarck + 5 restore_dc_4488_Bismarck + 1 restore_dc_4463_Bismarck + 5 restore_dc_4651_Bismarck + 1 restore_dc_4771_Bismarck + 4 restore_dc_4847_Bismarck + 1 restore_dc_4734_Bismarck + 4 restore_dc_4432_Bismarck + 5 restore_dc_4621_Bismarck + 5 restore_dc_4710_Bismarck + 3 restore_dc_4865_Bismarck + 3 restore_dc_4647_Bismarck + 4 restore_dc_3381_Bismarck + 5 restore_dc_3209_Bismarck + 2 restore_dc_4453_Bismarck + 3 restore_dc_2620_Bismarck + 2 restore_dc_4130_Bismarck + 2 restore_dc_4354_Bismarck + 2 restore_dc_4433_Bismarck + 3 restore_dc_4518_Bismarck + 4 restore_dc_4644_Bismarck + 4 restore_dc_3840_Bismarck + 4 restore_dc_2413_Bismarck + 5 restore_dc_3664_Bismarck + 4 restore_dc_4774_Bismarck + 4 restore_dc_3759_Bismarck + 4 restore_dc_3968_Bismarck + 3 restore_dc_4270_Bismarck + 2 restore_dc_4129_Bismarck + 5 restore_dc_4671_Bismarck + 4 restore_dc_4152_Bismarck + 1 restore_dc_4379_Bismarck + 1 restore_dc_4812_Bismarck + 5 restore_dc_4513_Bismarck + 3 restore_dc_4584_Bismarck + 3 restore_dc_4585_Bismarck + 1 restore_dc_4212_Bismarck + 1 restore_dc_4272_Bismarck + 4 restore_dc_4144_Bismarck + 4 restore_dc_3572_Bismarck + 3 restore_dc_4818_Bismarck + 4 restore_dc_4659_Bismarck + 5 restore_dc_3253_Bismarck + 1 restore_dc_4352_Bismarck + 3 restore_dc_3350_Bismarck + 3 restore_dc_4741_Bismarck + 3 restore_dc_4455_Bismarck + 4 restore_dc_4328_Bismarck <= 1216
mldc_Birmingham: 4 restore_dc_4688_Birmingham + 5 restore_dc_4805_Birmingham + 5 restore_dc_4824_Birmingham + 3 restore_dc_4527_Birmingham + 5 restore_dc_4123_Birmingham + 4 restore_dc_3470_Birmingham + 1 restore_dc_4000_Birmingham + 5 restore_dc_4870_Birmingham + 1 restore_dc_4867_Birmingham + 1 restore_dc_4256_Birmingham + 5 restore_dc_4789_Birmingham + 3 restore_dc_4026_Birmingham + 5 restore_dc_4639_Birmingham + 3 restore_dc_4598_Birmingham + 4 restore_dc_4772_Birmingham + 1 restore_dc_4781_Birmingham + 3 restore_dc_4624_Birmingham + 4 restore_dc_4877_Birmingham + 3 restore_dc_4255_Birmingham + 2 restore_dc_4631_Birmingham + 1 restore_dc_3740_Birmingham + 1 restore_dc_4637_Birmingham + 1 restore_dc_3691_Birmingham + 5 restore_dc_4709_Birmingham + 2 restore_dc_4758_Birmingham + 1 restore_dc_4548_Birmingham + 1 restore_dc_4423_Birmingham + 3 restore_dc_4331_Birmingham + 3 restore_dc_4744_Birmingham + 5 restore_dc_4210_Birmingham + 2 restore_dc_505_Birmingham + 3 restore_dc_3161_Birmingham + 2 restore_dc_4359_Birmingham + 5 restore_dc_4488_Birmingham + 1 restore_dc_4463_Birmingham + 5 restore_dc_4651_Birmingham + 1 restore_dc_4771_Birmingham + 4 restore_dc_4847_Birmingham + 1 restore_dc_4734_Birmingham + 4 restore_dc_4432_Birmingham + 5 restore_dc_4621_Birmingham + 5 restore_dc_4710_Birmingham + 3 restore_dc_4865_Birmingham + 3 restore_dc_4647_Birmingham + 4 restore_dc_3381_Birmingham + 5 restore_dc_3209_Birmingham + 2 restore_dc_4453_Birmingham + 3 restore_dc_2620_Birmingham + 2 restore_dc_4130_Birmingham + 2 restore_dc_4354_Birmingham + 2 restore_dc_4433_Birmingham + 3 restore_dc_4518_Birmingham + 4 restore_dc_4644_Birmingham + 4 restore_dc_3840_Birmingham + 4 restore_dc_2413_Birmingham + 5 restore_dc_3664_Birmingham + 4 restore_dc_4774_Birmingham + 4 restore_dc_3759_Birmingham + 4 restore_dc_3968_Birmingham + 3 restore_dc_4270_Birmingham + 2 restore_dc_4129_Birmingham + 5 restore_dc_4671_Birmingham + 4 restore_dc_4152_Birmingham + 1 restore_dc_4379_Birmingham + 1 restore_dc_4812_Birmingham + 5 restore_dc_4513_Birmingham + 3 restore_dc_4584_Birmingham + 3 restore_dc_4585_Birmingham + 1 restore_dc_4212_Birmingham + 1 restore_dc_4272_Birmingham + 4 restore_dc_4144_Birmingham + 4 restore_dc_3572_Birmingham + 3 restore_dc_4818_Birmingham + 4 restore_dc_4659_Birmingham + 5 restore_dc_3253_Birmingham + 1 restore_dc_4352_Birmingham + 3 restore_dc_3350_Birmingham + 3 restore_dc_4741_Birmingham + 3 restore_dc_4455_Birmingham + 4 restore_dc_4328_Birmingham <= 1393
mldc_Salt_Lake_City: 4 restore_dc_4688_Salt_Lake_City + 5 restore_dc_4805_Salt_Lake_City + 5 restore_dc_4824_Salt_Lake_City + 3 restore_dc_4527_Salt_Lake_City + 5 restore_dc_4123_Salt_Lake_City + 4 restore_dc_3470_Salt_Lake_City + 1 restore_dc_4000_Salt_Lake_City + 5 restore_dc_4870_Salt_Lake_City + 1 restore_dc_4867_Salt_Lake_City + 1 restore_dc_4256_Salt_Lake_City + 5 restore_dc_4789_Salt_Lake_City + 3 restore_dc_4026_Salt_Lake_City + 5 restore_dc_4639_Salt_Lake_City + 3 restore_dc_4598_Salt_Lake_City + 4 restore_dc_4772_Salt_Lake_City + 1 restore_dc_4781_Salt_Lake_City + 3 restore_dc_4624_Salt_Lake_City + 4 restore_dc_4877_Salt_Lake_City + 3 restore_dc_4255_Salt_Lake_City + 2 restore_dc_4631_Salt_Lake_City + 1 restore_dc_3740_Salt_Lake_City + 1 restore_dc_4637_Salt_Lake_City + 1 restore_dc_3691_Salt_Lake_City + 5 restore_dc_4709_Salt_Lake_City + 2 restore_dc_4758_Salt_Lake_City + 1 restore_dc_4548_Salt_Lake_City + 1 restore_dc_4423_Salt_Lake_City + 3 restore_dc_4331_Salt_Lake_City + 3 restore_dc_4744_Salt_Lake_City + 5 restore_dc_4210_Salt_Lake_City + 2 restore_dc_505_Salt_Lake_City + 3 restore_dc_3161_Salt_Lake_City + 2 restore_dc_4359_Salt_Lake_City + 5 restore_dc_4488_Salt_Lake_City + 1 restore_dc_4463_Salt_Lake_City + 5 restore_dc_4651_Salt_Lake_City + 1 restore_dc_4771_Salt_Lake_City + 4 restore_dc_4847_Salt_Lake_City + 1 restore_dc_4734_Salt_Lake_City + 4 restore_dc_4432_Salt_Lake_City + 5 restore_dc_4621_Salt_Lake_City + 5 restore_dc_4710_Salt_Lake_City + 3 restore_dc_4865_Salt_Lake_City + 3 restore_dc_4647_Salt_Lake_City + 4 restore_dc_3381_Salt_Lake_City + 5 restore_dc_3209_Salt_Lake_City + 2 restore_dc_4453_Salt_Lake_City + 3 restore_dc_2620_Salt_Lake_City + 2 restore_dc_4130_Salt_Lake_City + 2 restore_dc_4354_Salt_Lake_City + 2 restore_dc_4433_Salt_Lake_City + 3 restore_dc_4518_Salt_Lake_City + 4 restore_dc_4644_Salt_Lake_City + 4 restore_dc_3840_Salt_Lake_City + 4 restore_dc_2413_Salt_Lake_City + 5 restore_dc_3664_Salt_Lake_City + 4 restore_dc_4774_Salt_Lake_City + 4 restore_dc_3759_Salt_Lake_City + 4 restore_dc_3968_Salt_Lake_City + 3 restore_dc_4270_Salt_Lake_City + 2 restore_dc_4129_Salt_Lake_City + 5 restore_dc_4671_Salt_Lake_City + 4 restore_dc_4152_Salt_Lake_City + 1 restore_dc_4379_Salt_Lake_City + 1 restore_dc_4812_Salt_Lake_City + 5 restore_dc_4513_Salt_Lake_City + 3 restore_dc_4584_Salt_Lake_City + 3 restore_dc_4585_Salt_Lake_City + 1 restore_dc_4212_Salt_Lake_City + 1 restore_dc_4272_Salt_Lake_City + 4 restore_dc_4144_Salt_Lake_City + 4 restore_dc_3572_Salt_Lake_City + 3 restore_dc_4818_Salt_Lake_City + 4 restore_dc_4659_Salt_Lake_City + 5 restore_dc_3253_Salt_Lake_City + 1 restore_dc_4352_Salt_Lake_City + 3 restore_dc_3350_Salt_Lake_City + 3 restore_dc_4741_Salt_Lake_City + 3 restore_dc_4455_Salt_Lake_City + 4 restore_dc_4328_Salt_Lake_City <= 1485
mwls: load_0 + load_1 + load_2 + load_3 + load_4 + load_5 + load_6 + load_7 + load_8 + load_9 + load_10 + load_11 + load_12 + load_13 + load_14 + load_15 + load_16 + load_17 + load_18 + load_19 + load_20 + load_21 + load_22 + load_23 + load_24 + load_25 + load_26 + load_27 + load_28 + load_29 + load_30 + load_31 + load_32 + load_33 + load_34 + load_37 + load_38 + load_39 + load_40 + load_41 + load_42 - wls = 0 
mrestored: restored_4688 + restored_4805 + restored_4824 + restored_4527 + restored_4123 + restored_3470 + restored_4000 + restored_4870 + restored_4867 + restored_4256 + restored_4789 + restored_4026 + restored_4639 + restored_4598 + restored_4772 + restored_4781 + restored_4624 + restored_4877 + restored_4255 + restored_4631 + restored_3740 + restored_4637 + restored_3691 + restored_4709 + restored_4758 + restored_4548 + restored_4423 + restored_4331 + restored_4744 + restored_4210 + restored_505 + restored_3161 + restored_4359 + restored_4488 + restored_4463 + restored_4651 + restored_4771 + restored_4847 + restored_4734 + restored_4432 + restored_4621 + restored_4710 + restored_4865 + restored_4647 + restored_3381 + restored_3209 + restored_4453 + restored_2620 + restored_4130 + restored_4354 + restored_4433 + restored_4518 + restored_4644 + restored_3840 + restored_2413 + restored_3664 + restored_4774 + restored_3759 + restored_3968 + restored_4270 + restored_4129 + restored_4671 + restored_4152 + restored_4379 + restored_4812 + restored_4513 + restored_4584 + restored_4585 + restored_4212 + restored_4272 + restored_4144 + restored_3572 + restored_4818 + restored_4659 + restored_3253 + restored_4352 + restored_3350 + restored_4741 + restored_4455 + restored_4328 - restored = 0 
mserv: unrestored + restored = 80
mrestored_dc_4688: restored_dc_4688_Bismarck + restored_dc_4688_Birmingham + restored_dc_4688_Salt_Lake_City <= 1 
mrestored_dc_4805: restored_dc_4805_Bismarck + restored_dc_4805_Birmingham + restored_dc_4805_Salt_Lake_City <= 1 
mrestored_dc_4824: restored_dc_4824_Bismarck + restored_dc_4824_Birmingham + restored_dc_4824_Salt_Lake_City <= 1 
mrestored_dc_4527: restored_dc_4527_Bismarck + restored_dc_4527_Birmingham + restored_dc_4527_Salt_Lake_City <= 1 
mrestored_dc_4123: restored_dc_4123_Bismarck + restored_dc_4123_Birmingham + restored_dc_4123_Salt_Lake_City <= 1 
mrestored_dc_3470: restored_dc_3470_Bismarck + restored_dc_3470_Birmingham + restored_dc_3470_Salt_Lake_City <= 1 
mrestored_dc_4000: restored_dc_4000_Bismarck + restored_dc_4000_Birmingham + restored_dc_4000_Salt_Lake_City <= 1 
mrestored_dc_4870: restored_dc_4870_Bismarck + restored_dc_4870_Birmingham + restored_dc_4870_Salt_Lake_City <= 1 
mrestored_dc_4867: restored_dc_4867_Bismarck + restored_dc_4867_Birmingham + restored_dc_4867_Salt_Lake_City <= 1 
mrestored_dc_4256: restored_dc_4256_Bismarck + restored_dc_4256_Birmingham + restored_dc_4256_Salt_Lake_City <= 1 
mrestored_dc_4789: restored_dc_4789_Bismarck + restored_dc_4789_Birmingham + restored_dc_4789_Salt_Lake_City <= 1 
mrestored_dc_4026: restored_dc_4026_Bismarck + restored_dc_4026_Birmingham + restored_dc_4026_Salt_Lake_City <= 1 
mrestored_dc_4639: restored_dc_4639_Bismarck + restored_dc_4639_Birmingham + restored_dc_4639_Salt_Lake_City <= 1 
mrestored_dc_4598: restored_dc_4598_Bismarck + restored_dc_4598_Birmingham + restored_dc_4598_Salt_Lake_City <= 1 
mrestored_dc_4772: restored_dc_4772_Bismarck + restored_dc_4772_Birmingham + restored_dc_4772_Salt_Lake_City <= 1 
mrestored_dc_4781: restored_dc_4781_Bismarck + restored_dc_4781_Birmingham + restored_dc_4781_Salt_Lake_City <= 1 
mrestored_dc_4624: restored_dc_4624_Bismarck + restored_dc_4624_Birmingham + restored_dc_4624_Salt_Lake_City <= 1 
mrestored_dc_4877: restored_dc_4877_Bismarck + restored_dc_4877_Birmingham + restored_dc_4877_Salt_Lake_City <= 1 
mrestored_dc_4255: restored_dc_4255_Bismarck + restored_dc_4255_Birmingham + restored_dc_4255_Salt_Lake_City <= 1 
mrestored_dc_4631: restored_dc_4631_Bismarck + restored_dc_4631_Birmingham + restored_dc_4631_Salt_Lake_City <= 1 
mrestored_dc_3740: restored_dc_3740_Bismarck + restored_dc_3740_Birmingham + restored_dc_3740_Salt_Lake_City <= 1 
mrestored_dc_4637: restored_dc_4637_Bismarck + restored_dc_4637_Birmingham + restored_dc_4637_Salt_Lake_City <= 1 
mrestored_dc_3691: restored_dc_3691_Bismarck + restored_dc_3691_Birmingham + restored_dc_3691_Salt_Lake_City <= 1 
mrestored_dc_4709: restored_dc_4709_Bismarck + restored_dc_4709_Birmingham + restored_dc_4709_Salt_Lake_City <= 1 
mrestored_dc_4758: restored_dc_4758_Bismarck + restored_dc_4758_Birmingham + restored_dc_4758_Salt_Lake_City <= 1 
mrestored_dc_4548: restored_dc_4548_Bismarck + restored_dc_4548_Birmingham + restored_dc_4548_Salt_Lake_City <= 1 
mrestored_dc_4423: restored_dc_4423_Bismarck + restored_dc_4423_Birmingham + restored_dc_4423_Salt_Lake_City <= 1 
mrestored_dc_4331: restored_dc_4331_Bismarck + restored_dc_4331_Birmingham + restored_dc_4331_Salt_Lake_City <= 1 
mrestored_dc_4744: restored_dc_4744_Bismarck + restored_dc_4744_Birmingham + restored_dc_4744_Salt_Lake_City <= 1 
mrestored_dc_4210: restored_dc_4210_Bismarck + restored_dc_4210_Birmingham + restored_dc_4210_Salt_Lake_City <= 1 
mrestored_dc_505: restored_dc_505_Bismarck + restored_dc_505_Birmingham + restored_dc_505_Salt_Lake_City <= 1 
mrestored_dc_3161: restored_dc_3161_Bismarck + restored_dc_3161_Birmingham + restored_dc_3161_Salt_Lake_City <= 1 
mrestored_dc_4359: restored_dc_4359_Bismarck + restored_dc_4359_Birmingham + restored_dc_4359_Salt_Lake_City <= 1 
mrestored_dc_4488: restored_dc_4488_Bismarck + restored_dc_4488_Birmingham + restored_dc_4488_Salt_Lake_City <= 1 
mrestored_dc_4463: restored_dc_4463_Bismarck + restored_dc_4463_Birmingham + restored_dc_4463_Salt_Lake_City <= 1 
mrestored_dc_4651: restored_dc_4651_Bismarck + restored_dc_4651_Birmingham + restored_dc_4651_Salt_Lake_City <= 1 
mrestored_dc_4771: restored_dc_4771_Bismarck + restored_dc_4771_Birmingham + restored_dc_4771_Salt_Lake_City <= 1 
mrestored_dc_4847: restored_dc_4847_Bismarck + restored_dc_4847_Birmingham + restored_dc_4847_Salt_Lake_City <= 1 
mrestored_dc_4734: restored_dc_4734_Bismarck + restored_dc_4734_Birmingham + restored_dc_4734_Salt_Lake_City <= 1 
mrestored_dc_4432: restored_dc_4432_Bismarck + restored_dc_4432_Birmingham + restored_dc_4432_Salt_Lake_City <= 1 
mrestored_dc_4621: restored_dc_4621_Bismarck + restored_dc_4621_Birmingham + restored_dc_4621_Salt_Lake_City <= 1 
mrestored_dc_4710: restored_dc_4710_Bismarck + restored_dc_4710_Birmingham + restored_dc_4710_Salt_Lake_City <= 1 
mrestored_dc_4865: restored_dc_4865_Bismarck + restored_dc_4865_Birmingham + restored_dc_4865_Salt_Lake_City <= 1 
mrestored_dc_4647: restored_dc_4647_Bismarck + restored_dc_4647_Birmingham + restored_dc_4647_Salt_Lake_City <= 1 
mrestored_dc_3381: restored_dc_3381_Bismarck + restored_dc_3381_Birmingham + restored_dc_3381_Salt_Lake_City <= 1 
mrestored_dc_3209: restored_dc_3209_Bismarck + restored_dc_3209_Birmingham + restored_dc_3209_Salt_Lake_City <= 1 
mrestored_dc_4453: restored_dc_4453_Bismarck + restored_dc_4453_Birmingham + restored_dc_4453_Salt_Lake_City <= 1 
mrestored_dc_2620: restored_dc_2620_Bismarck + restored_dc_2620_Birmingham + restored_dc_2620_Salt_Lake_City <= 1 
mrestored_dc_4130: restored_dc_4130_Bismarck + restored_dc_4130_Birmingham + restored_dc_4130_Salt_Lake_City <= 1 
mrestored_dc_4354: restored_dc_4354_Bismarck + restored_dc_4354_Birmingham + restored_dc_4354_Salt_Lake_City <= 1 
mrestored_dc_4433: restored_dc_4433_Bismarck + restored_dc_4433_Birmingham + restored_dc_4433_Salt_Lake_City <= 1 
mrestored_dc_4518: restored_dc_4518_Bismarck + restored_dc_4518_Birmingham + restored_dc_4518_Salt_Lake_City <= 1 
mrestored_dc_4644: restored_dc_4644_Bismarck + restored_dc_4644_Birmingham + restored_dc_4644_Salt_Lake_City <= 1 
mrestored_dc_3840: restored_dc_3840_Bismarck + restored_dc_3840_Birmingham + restored_dc_3840_Salt_Lake_City <= 1 
mrestored_dc_2413: restored_dc_2413_Bismarck + restored_dc_2413_Birmingham + restored_dc_2413_Salt_Lake_City <= 1 
mrestored_dc_3664: restored_dc_3664_Bismarck + restored_dc_3664_Birmingham + restored_dc_3664_Salt_Lake_City <= 1 
mrestored_dc_4774: restored_dc_4774_Bismarck + restored_dc_4774_Birmingham + restored_dc_4774_Salt_Lake_City <= 1 
mrestored_dc_3759: restored_dc_3759_Bismarck + restored_dc_3759_Birmingham + restored_dc_3759_Salt_Lake_City <= 1 
mrestored_dc_3968: restored_dc_3968_Bismarck + restored_dc_3968_Birmingham + restored_dc_3968_Salt_Lake_City <= 1 
mrestored_dc_4270: restored_dc_4270_Bismarck + restored_dc_4270_Birmingham + restored_dc_4270_Salt_Lake_City <= 1 
mrestored_dc_4129: restored_dc_4129_Bismarck + restored_dc_4129_Birmingham + restored_dc_4129_Salt_Lake_City <= 1 
mrestored_dc_4671: restored_dc_4671_Bismarck + restored_dc_4671_Birmingham + restored_dc_4671_Salt_Lake_City <= 1 
mrestored_dc_4152: restored_dc_4152_Bismarck + restored_dc_4152_Birmingham + restored_dc_4152_Salt_Lake_City <= 1 
mrestored_dc_4379: restored_dc_4379_Bismarck + restored_dc_4379_Birmingham + restored_dc_4379_Salt_Lake_City <= 1 
mrestored_dc_4812: restored_dc_4812_Bismarck + restored_dc_4812_Birmingham + restored_dc_4812_Salt_Lake_City <= 1 
mrestored_dc_4513: restored_dc_4513_Bismarck + restored_dc_4513_Birmingham + restored_dc_4513_Salt_Lake_City <= 1 
mrestored_dc_4584: restored_dc_4584_Bismarck + restored_dc_4584_Birmingham + restored_dc_4584_Salt_Lake_City <= 1 
mrestored_dc_4585: restored_dc_4585_Bismarck + restored_dc_4585_Birmingham + restored_dc_4585_Salt_Lake_City <= 1 
mrestored_dc_4212: restored_dc_4212_Bismarck + restored_dc_4212_Birmingham + restored_dc_4212_Salt_Lake_City <= 1 
mrestored_dc_4272: restored_dc_4272_Bismarck + restored_dc_4272_Birmingham + restored_dc_4272_Salt_Lake_City <= 1 
mrestored_dc_4144: restored_dc_4144_Bismarck + restored_dc_4144_Birmingham + restored_dc_4144_Salt_Lake_City <= 1 
mrestored_dc_3572: restored_dc_3572_Bismarck + restored_dc_3572_Birmingham + restored_dc_3572_Salt_Lake_City <= 1 
mrestored_dc_4818: restored_dc_4818_Bismarck + restored_dc_4818_Birmingham + restored_dc_4818_Salt_Lake_City <= 1 
mrestored_dc_4659: restored_dc_4659_Bismarck + restored_dc_4659_Birmingham + restored_dc_4659_Salt_Lake_City <= 1 
mrestored_dc_3253: restored_dc_3253_Bismarck + restored_dc_3253_Birmingham + restored_dc_3253_Salt_Lake_City <= 1 
mrestored_dc_4352: restored_dc_4352_Bismarck + restored_dc_4352_Birmingham + restored_dc_4352_Salt_Lake_City <= 1 
mrestored_dc_3350: restored_dc_3350_Bismarck + restored_dc_3350_Birmingham + restored_dc_3350_Salt_Lake_City <= 1 
mrestored_dc_4741: restored_dc_4741_Bismarck + restored_dc_4741_Birmingham + restored_dc_4741_Salt_Lake_City <= 1 
mrestored_dc_4455: restored_dc_4455_Bismarck + restored_dc_4455_Birmingham + restored_dc_4455_Salt_Lake_City <= 1 
mrestored_dc_4328: restored_dc_4328_Bismarck + restored_dc_4328_Birmingham + restored_dc_4328_Salt_Lake_City <= 1 
mrelocation_4688: restored_dc_4688_Bismarck + restored_dc_4688_Salt_Lake_City - relocation_4688 = 0 
mrelocation_4805: restored_dc_4805_Bismarck + restored_dc_4805_Salt_Lake_City - relocation_4805 = 0 
mrelocation_4824: restored_dc_4824_Bismarck + restored_dc_4824_Salt_Lake_City - relocation_4824 = 0 
mrelocation_4527: restored_dc_4527_Bismarck + restored_dc_4527_Salt_Lake_City - relocation_4527 = 0 
mrelocation_4123: restored_dc_4123_Bismarck + restored_dc_4123_Salt_Lake_City - relocation_4123 = 0 
mrelocation_3470: restored_dc_3470_Bismarck + restored_dc_3470_Salt_Lake_City - relocation_3470 = 0 
mrelocation_4000: restored_dc_4000_Bismarck + restored_dc_4000_Salt_Lake_City - relocation_4000 = 0 
mrelocation_4870: restored_dc_4870_Bismarck + restored_dc_4870_Salt_Lake_City - relocation_4870 = 0 
mrelocation_4867: restored_dc_4867_Bismarck + restored_dc_4867_Salt_Lake_City - relocation_4867 = 0 
mrelocation_4256: restored_dc_4256_Bismarck + restored_dc_4256_Salt_Lake_City - relocation_4256 = 0 
mrelocation_4789: restored_dc_4789_Bismarck + restored_dc_4789_Salt_Lake_City - relocation_4789 = 0 
mrelocation_4026: restored_dc_4026_Bismarck + restored_dc_4026_Salt_Lake_City - relocation_4026 = 0 
mrelocation_4639: restored_dc_4639_Bismarck + restored_dc_4639_Salt_Lake_City - relocation_4639 = 0 
mrelocation_4598: restored_dc_4598_Bismarck + restored_dc_4598_Salt_Lake_City - relocation_4598 = 0 
mrelocation_4772: restored_dc_4772_Bismarck + restored_dc_4772_Salt_Lake_City - relocation_4772 = 0 
mrelocation_4781: restored_dc_4781_Bismarck + restored_dc_4781_Salt_Lake_City - relocation_4781 = 0 
mrelocation_4624: restored_dc_4624_Bismarck + restored_dc_4624_Salt_Lake_City - relocation_4624 = 0 
mrelocation_4877: restored_dc_4877_Bismarck + restored_dc_4877_Salt_Lake_City - relocation_4877 = 0 
mrelocation_4255: restored_dc_4255_Bismarck + restored_dc_4255_Salt_Lake_City - relocation_4255 = 0 
mrelocation_4631: restored_dc_4631_Bismarck + restored_dc_4631_Salt_Lake_City - relocation_4631 = 0 
mrelocation_3740: restored_dc_3740_Bismarck + restored_dc_3740_Salt_Lake_City - relocation_3740 = 0 
mrelocation_4637: restored_dc_4637_Bismarck + restored_dc_4637_Salt_Lake_City - relocation_4637 = 0 
mrelocation_3691: restored_dc_3691_Bismarck + restored_dc_3691_Salt_Lake_City - relocation_3691 = 0 
mrelocation_4709: restored_dc_4709_Bismarck + restored_dc_4709_Salt_Lake_City - relocation_4709 = 0 
mrelocation_4758: restored_dc_4758_Bismarck + restored_dc_4758_Salt_Lake_City - relocation_4758 = 0 
mrelocation_4548: restored_dc_4548_Bismarck + restored_dc_4548_Salt_Lake_City - relocation_4548 = 0 
mrelocation_4423: restored_dc_4423_Bismarck + restored_dc_4423_Salt_Lake_City - relocation_4423 = 0 
mrelocation_4331: restored_dc_4331_Bismarck + restored_dc_4331_Salt_Lake_City - relocation_4331 = 0 
mrelocation_4744: restored_dc_4744_Bismarck + restored_dc_4744_Salt_Lake_City - relocation_4744 = 0 
mrelocation_4210: restored_dc_4210_Bismarck + restored_dc_4210_Salt_Lake_City - relocation_4210 = 0 
mrelocation_505: restored_dc_505_Bismarck + restored_dc_505_Salt_Lake_City - relocation_505 = 0 
mrelocation_3161: restored_dc_3161_Bismarck + restored_dc_3161_Salt_Lake_City - relocation_3161 = 0 
mrelocation_4359: restored_dc_4359_Bismarck + restored_dc_4359_Salt_Lake_City - relocation_4359 = 0 
mrelocation_4488: restored_dc_4488_Bismarck + restored_dc_4488_Salt_Lake_City - relocation_4488 = 0 
mrelocation_4463: restored_dc_4463_Bismarck + restored_dc_4463_Salt_Lake_City - relocation_4463 = 0 
mrelocation_4651: restored_dc_4651_Bismarck + restored_dc_4651_Salt_Lake_City - relocation_4651 = 0 
mrelocation_4771: restored_dc_4771_Bismarck + restored_dc_4771_Salt_Lake_City - relocation_4771 = 0 
mrelocation_4847: restored_dc_4847_Bismarck + restored_dc_4847_Salt_Lake_City - relocation_4847 = 0 
mrelocation_4734: restored_dc_4734_Bismarck + restored_dc_4734_Salt_Lake_City - relocation_4734 = 0 
mrelocation_4432: restored_dc_4432_Bismarck + restored_dc_4432_Salt_Lake_City - relocation_4432 = 0 
mrelocation_4621: restored_dc_4621_Bismarck + restored_dc_4621_Salt_Lake_City - relocation_4621 = 0 
mrelocation_4710: restored_dc_4710_Bismarck + restored_dc_4710_Salt_Lake_City - relocation_4710 = 0 
mrelocation_4865: restored_dc_4865_Bismarck + restored_dc_4865_Salt_Lake_City - relocation_4865 = 0 
mrelocation_4647: restored_dc_4647_Bismarck + restored_dc_4647_Salt_Lake_City - relocation_4647 = 0 
mrelocation_3381: restored_dc_3381_Bismarck + restored_dc_3381_Salt_Lake_City - relocation_3381 = 0 
mrelocation_3209: restored_dc_3209_Bismarck + restored_dc_3209_Salt_Lake_City - relocation_3209 = 0 
mrelocation_4453: restored_dc_4453_Bismarck + restored_dc_4453_Salt_Lake_City - relocation_4453 = 0 
mrelocation_2620: restored_dc_2620_Bismarck + restored_dc_2620_Salt_Lake_City - relocation_2620 = 0 
mrelocation_4130: restored_dc_4130_Bismarck + restored_dc_4130_Salt_Lake_City - relocation_4130 = 0 
mrelocation_4354: restored_dc_4354_Bismarck + restored_dc_4354_Salt_Lake_City - relocation_4354 = 0 
mrelocation_4433: restored_dc_4433_Bismarck + restored_dc_4433_Salt_Lake_City - relocation_4433 = 0 
mrelocation_4518: restored_dc_4518_Bismarck + restored_dc_4518_Salt_Lake_City - relocation_4518 = 0 
mrelocation_4644: restored_dc_4644_Bismarck + restored_dc_4644_Salt_Lake_City - relocation_4644 = 0 
mrelocation_3840: restored_dc_3840_Bismarck + restored_dc_3840_Salt_Lake_City - relocation_3840 = 0 
mrelocation_2413: restored_dc_2413_Bismarck + restored_dc_2413_Salt_Lake_City - relocation_2413 = 0 
mrelocation_3664: restored_dc_3664_Bismarck + restored_dc_3664_Salt_Lake_City - relocation_3664 = 0 
mrelocation_4774: restored_dc_4774_Bismarck + restored_dc_4774_Salt_Lake_City - relocation_4774 = 0 
mrelocation_3759: restored_dc_3759_Bismarck + restored_dc_3759_Salt_Lake_City - relocation_3759 = 0 
mrelocation_3968: restored_dc_3968_Bismarck + restored_dc_3968_Salt_Lake_City - relocation_3968 = 0 
mrelocation_4270: restored_dc_4270_Bismarck + restored_dc_4270_Salt_Lake_City - relocation_4270 = 0 
mrelocation_4129: restored_dc_4129_Bismarck + restored_dc_4129_Salt_Lake_City - relocation_4129 = 0 
mrelocation_4671: restored_dc_4671_Bismarck + restored_dc_4671_Salt_Lake_City - relocation_4671 = 0 
mrelocation_4152: restored_dc_4152_Bismarck + restored_dc_4152_Salt_Lake_City - relocation_4152 = 0 
mrelocation_4379: restored_dc_4379_Bismarck + restored_dc_4379_Salt_Lake_City - relocation_4379 = 0 
mrelocation_4812: restored_dc_4812_Bismarck + restored_dc_4812_Salt_Lake_City - relocation_4812 = 0 
mrelocation_4513: restored_dc_4513_Bismarck + restored_dc_4513_Salt_Lake_City - relocation_4513 = 0 
mrelocation_4584: restored_dc_4584_Bismarck + restored_dc_4584_Salt_Lake_City - relocation_4584 = 0 
mrelocation_4585: restored_dc_4585_Bismarck + restored_dc_4585_Salt_Lake_City - relocation_4585 = 0 
mrelocation_4212: restored_dc_4212_Bismarck + restored_dc_4212_Salt_Lake_City - relocation_4212 = 0 
mrelocation_4272: restored_dc_4272_Bismarck + restored_dc_4272_Salt_Lake_City - relocation_4272 = 0 
mrelocation_4144: restored_dc_4144_Bismarck + restored_dc_4144_Salt_Lake_City - relocation_4144 = 0 
mrelocation_3572: restored_dc_3572_Bismarck + restored_dc_3572_Salt_Lake_City - relocation_3572 = 0 
mrelocation_4818: restored_dc_4818_Bismarck + restored_dc_4818_Salt_Lake_City - relocation_4818 = 0 
mrelocation_4659: restored_dc_4659_Bismarck + restored_dc_4659_Salt_Lake_City - relocation_4659 = 0 
mrelocation_3253: restored_dc_3253_Bismarck + restored_dc_3253_Salt_Lake_City - relocation_3253 = 0 
mrelocation_4352: restored_dc_4352_Bismarck + restored_dc_4352_Salt_Lake_City - relocation_4352 = 0 
mrelocation_3350: restored_dc_3350_Bismarck + restored_dc_3350_Salt_Lake_City - relocation_3350 = 0 
mrelocation_4741: restored_dc_4741_Bismarck + restored_dc_4741_Salt_Lake_City - relocation_4741 = 0 
mrelocation_4455: restored_dc_4455_Bismarck + restored_dc_4455_Salt_Lake_City - relocation_4455 = 0 
mrelocation_4328: restored_dc_4328_Bismarck + restored_dc_4328_Salt_Lake_City - relocation_4328 = 0 
mrelocations: relocation_4688 + relocation_4805 + relocation_4824 + relocation_4527 + relocation_4123 + relocation_3470 + relocation_4000 + relocation_4870 + relocation_4867 + relocation_4256 + relocation_4789 + relocation_4026 + relocation_4639 + relocation_4598 + relocation_4772 + relocation_4781 + relocation_4624 + relocation_4877 + relocation_4255 + relocation_4631 + relocation_3740 + relocation_4637 + relocation_3691 + relocation_4709 + relocation_4758 + relocation_4548 + relocation_4423 + relocation_4331 + relocation_4744 + relocation_4210 + relocation_505 + relocation_3161 + relocation_4359 + relocation_4488 + relocation_4463 + relocation_4651 + relocation_4771 + relocation_4847 + relocation_4734 + relocation_4432 + relocation_4621 + relocation_4710 + relocation_4865 + relocation_4647 + relocation_3381 + relocation_3209 + relocation_4453 + relocation_2620 + relocation_4130 + relocation_4354 + relocation_4433 + relocation_4518 + relocation_4644 + relocation_3840 + relocation_2413 + relocation_3664 + relocation_4774 + relocation_3759 + relocation_3968 + relocation_4270 + relocation_4129 + relocation_4671 + relocation_4152 + relocation_4379 + relocation_4812 + relocation_4513 + relocation_4584 + relocation_4585 + relocation_4212 + relocation_4272 + relocation_4144 + relocation_3572 + relocation_4818 + relocation_4659 + relocation_3253 + relocation_4352 + relocation_3350 + relocation_4741 + relocation_4455 + relocation_4328 - relocations = 0 
mtotal_cost: path_4688 + path_4805 + path_4824 + path_4527 + path_4123 + path_3470 + path_4000 + path_4870 + path_4867 + path_4256 + path_4789 + path_4026 + path_4639 + path_4598 + path_4772 + path_4781 + path_4624 + path_4877 + path_4255 + path_4631 + path_3740 + path_4637 + path_3691 + path_4709 + path_4758 + path_4548 + path_4423 + path_4331 + path_4744 + path_4210 + path_505 + path_3161 + path_4359 + path_4488 + path_4463 + path_4651 + path_4771 + path_4847 + path_4734 + path_4432 + path_4621 + path_4710 + path_4865 + path_4647 + path_3381 + path_3209 + path_4453 + path_2620 + path_4130 + path_4354 + path_4433 + path_4518 + path_4644 + path_3840 + path_2413 + path_3664 + path_4774 + path_3759 + path_3968 + path_4270 + path_4129 + path_4671 + path_4152 + path_4379 + path_4812 + path_4513 + path_4584 + path_4585 + path_4212 + path_4272 + path_4144 + path_3572 + path_4818 + path_4659 + path_3253 + path_4352 + path_3350 + path_4741 + path_4455 + path_4328 - total_cost = 0
mprob_4688:  1 x_4688_0 +  1 x_4688_1 +  1 x_4688_2 +  1 x_4688_3 +  1 x_4688_4 +  1 x_4688_5 +  1 x_4688_6 +  1 x_4688_7 +  1 x_4688_8 +  1 x_4688_9 +  131.0 x_4688_10 +  16.0 x_4688_11 +  5.0 x_4688_12 +  1 x_4688_13 +  1 x_4688_14 +  16.0 x_4688_15 +  1 x_4688_16 +  5.0 x_4688_17 +  1 x_4688_18 +  131.0 x_4688_19 +  1 x_4688_20 +  1 x_4688_21 +  1 x_4688_22 +  1 x_4688_23 +  1 x_4688_24 +  1 x_4688_25 +  1 x_4688_26 +  1 x_4688_27 +  1 x_4688_28 +  1 x_4688_29 +  1 x_4688_30 +  1 x_4688_31 +  1 x_4688_32 +  1 x_4688_33 +  5.0 x_4688_34 +  1 x_4688_37 +  1 x_4688_38 +  1 x_4688_39 +  1 x_4688_40 +  1 x_4688_41 +  1 x_4688_42 - path_4688 = 0
mprob_4805:  1 x_4805_0 +  1 x_4805_1 +  1 x_4805_2 +  1 x_4805_3 +  1 x_4805_4 +  1 x_4805_5 +  1 x_4805_6 +  1 x_4805_7 +  1 x_4805_8 +  1 x_4805_9 +  131.0 x_4805_10 +  16.0 x_4805_11 +  5.0 x_4805_12 +  1 x_4805_13 +  1 x_4805_14 +  16.0 x_4805_15 +  1 x_4805_16 +  5.0 x_4805_17 +  1 x_4805_18 +  131.0 x_4805_19 +  1 x_4805_20 +  1 x_4805_21 +  1 x_4805_22 +  1 x_4805_23 +  1 x_4805_24 +  1 x_4805_25 +  1 x_4805_26 +  1 x_4805_27 +  1 x_4805_28 +  1 x_4805_29 +  1 x_4805_30 +  1 x_4805_31 +  1 x_4805_32 +  1 x_4805_33 +  5.0 x_4805_34 +  1 x_4805_37 +  1 x_4805_38 +  1 x_4805_39 +  1 x_4805_40 +  1 x_4805_41 +  1 x_4805_42 - path_4805 = 0
mprob_4824:  1 x_4824_0 +  1 x_4824_1 +  1 x_4824_2 +  1 x_4824_3 +  1 x_4824_4 +  1 x_4824_5 +  1 x_4824_6 +  1 x_4824_7 +  1 x_4824_8 +  1 x_4824_9 +  131.0 x_4824_10 +  16.0 x_4824_11 +  5.0 x_4824_12 +  1 x_4824_13 +  1 x_4824_14 +  16.0 x_4824_15 +  1 x_4824_16 +  5.0 x_4824_17 +  1 x_4824_18 +  131.0 x_4824_19 +  1 x_4824_20 +  1 x_4824_21 +  1 x_4824_22 +  1 x_4824_23 +  1 x_4824_24 +  1 x_4824_25 +  1 x_4824_26 +  1 x_4824_27 +  1 x_4824_28 +  1 x_4824_29 +  1 x_4824_30 +  1 x_4824_31 +  1 x_4824_32 +  1 x_4824_33 +  5.0 x_4824_34 +  1 x_4824_37 +  1 x_4824_38 +  1 x_4824_39 +  1 x_4824_40 +  1 x_4824_41 +  1 x_4824_42 - path_4824 = 0
mprob_4527:  1 x_4527_0 +  1 x_4527_1 +  1 x_4527_2 +  1 x_4527_3 +  1 x_4527_4 +  1 x_4527_5 +  1 x_4527_6 +  1 x_4527_7 +  1 x_4527_8 +  1 x_4527_9 +  131.0 x_4527_10 +  16.0 x_4527_11 +  5.0 x_4527_12 +  1 x_4527_13 +  1 x_4527_14 +  16.0 x_4527_15 +  1 x_4527_16 +  5.0 x_4527_17 +  1 x_4527_18 +  131.0 x_4527_19 +  1 x_4527_20 +  1 x_4527_21 +  1 x_4527_22 +  1 x_4527_23 +  1 x_4527_24 +  1 x_4527_25 +  1 x_4527_26 +  1 x_4527_27 +  1 x_4527_28 +  1 x_4527_29 +  1 x_4527_30 +  1 x_4527_31 +  1 x_4527_32 +  1 x_4527_33 +  5.0 x_4527_34 +  1 x_4527_37 +  1 x_4527_38 +  1 x_4527_39 +  1 x_4527_40 +  1 x_4527_41 +  1 x_4527_42 - path_4527 = 0
mprob_4123:  1 x_4123_0 +  1 x_4123_1 +  1 x_4123_2 +  1 x_4123_3 +  1 x_4123_4 +  1 x_4123_5 +  1 x_4123_6 +  1 x_4123_7 +  1 x_4123_8 +  1 x_4123_9 +  131.0 x_4123_10 +  16.0 x_4123_11 +  5.0 x_4123_12 +  1 x_4123_13 +  1 x_4123_14 +  16.0 x_4123_15 +  1 x_4123_16 +  5.0 x_4123_17 +  1 x_4123_18 +  131.0 x_4123_19 +  1 x_4123_20 +  1 x_4123_21 +  1 x_4123_22 +  1 x_4123_23 +  1 x_4123_24 +  1 x_4123_25 +  1 x_4123_26 +  1 x_4123_27 +  1 x_4123_28 +  1 x_4123_29 +  1 x_4123_30 +  1 x_4123_31 +  1 x_4123_32 +  1 x_4123_33 +  5.0 x_4123_34 +  1 x_4123_37 +  1 x_4123_38 +  1 x_4123_39 +  1 x_4123_40 +  1 x_4123_41 +  1 x_4123_42 - path_4123 = 0
mprob_3470:  1 x_3470_0 +  1 x_3470_1 +  1 x_3470_2 +  1 x_3470_3 +  1 x_3470_4 +  1 x_3470_5 +  1 x_3470_6 +  1 x_3470_7 +  1 x_3470_8 +  1 x_3470_9 +  131.0 x_3470_10 +  16.0 x_3470_11 +  5.0 x_3470_12 +  1 x_3470_13 +  1 x_3470_14 +  16.0 x_3470_15 +  1 x_3470_16 +  5.0 x_3470_17 +  1 x_3470_18 +  131.0 x_3470_19 +  1 x_3470_20 +  1 x_3470_21 +  1 x_3470_22 +  1 x_3470_23 +  1 x_3470_24 +  1 x_3470_25 +  1 x_3470_26 +  1 x_3470_27 +  1 x_3470_28 +  1 x_3470_29 +  1 x_3470_30 +  1 x_3470_31 +  1 x_3470_32 +  1 x_3470_33 +  5.0 x_3470_34 +  1 x_3470_37 +  1 x_3470_38 +  1 x_3470_39 +  1 x_3470_40 +  1 x_3470_41 +  1 x_3470_42 - path_3470 = 0
mprob_4000:  1 x_4000_0 +  1 x_4000_1 +  1 x_4000_2 +  1 x_4000_3 +  1 x_4000_4 +  1 x_4000_5 +  1 x_4000_6 +  1 x_4000_7 +  1 x_4000_8 +  1 x_4000_9 +  131.0 x_4000_10 +  16.0 x_4000_11 +  5.0 x_4000_12 +  1 x_4000_13 +  1 x_4000_14 +  16.0 x_4000_15 +  1 x_4000_16 +  5.0 x_4000_17 +  1 x_4000_18 +  131.0 x_4000_19 +  1 x_4000_20 +  1 x_4000_21 +  1 x_4000_22 +  1 x_4000_23 +  1 x_4000_24 +  1 x_4000_25 +  1 x_4000_26 +  1 x_4000_27 +  1 x_4000_28 +  1 x_4000_29 +  1 x_4000_30 +  1 x_4000_31 +  1 x_4000_32 +  1 x_4000_33 +  5.0 x_4000_34 +  1 x_4000_37 +  1 x_4000_38 +  1 x_4000_39 +  1 x_4000_40 +  1 x_4000_41 +  1 x_4000_42 - path_4000 = 0
mprob_4870:  1 x_4870_0 +  1 x_4870_1 +  1 x_4870_2 +  1 x_4870_3 +  1 x_4870_4 +  1 x_4870_5 +  1 x_4870_6 +  1 x_4870_7 +  1 x_4870_8 +  1 x_4870_9 +  131.0 x_4870_10 +  16.0 x_4870_11 +  5.0 x_4870_12 +  1 x_4870_13 +  1 x_4870_14 +  16.0 x_4870_15 +  1 x_4870_16 +  5.0 x_4870_17 +  1 x_4870_18 +  131.0 x_4870_19 +  1 x_4870_20 +  1 x_4870_21 +  1 x_4870_22 +  1 x_4870_23 +  1 x_4870_24 +  1 x_4870_25 +  1 x_4870_26 +  1 x_4870_27 +  1 x_4870_28 +  1 x_4870_29 +  1 x_4870_30 +  1 x_4870_31 +  1 x_4870_32 +  1 x_4870_33 +  5.0 x_4870_34 +  1 x_4870_37 +  1 x_4870_38 +  1 x_4870_39 +  1 x_4870_40 +  1 x_4870_41 +  1 x_4870_42 - path_4870 = 0
mprob_4867:  1 x_4867_0 +  1 x_4867_1 +  1 x_4867_2 +  1 x_4867_3 +  1 x_4867_4 +  1 x_4867_5 +  1 x_4867_6 +  1 x_4867_7 +  1 x_4867_8 +  1 x_4867_9 +  131.0 x_4867_10 +  16.0 x_4867_11 +  5.0 x_4867_12 +  1 x_4867_13 +  1 x_4867_14 +  16.0 x_4867_15 +  1 x_4867_16 +  5.0 x_4867_17 +  1 x_4867_18 +  131.0 x_4867_19 +  1 x_4867_20 +  1 x_4867_21 +  1 x_4867_22 +  1 x_4867_23 +  1 x_4867_24 +  1 x_4867_25 +  1 x_4867_26 +  1 x_4867_27 +  1 x_4867_28 +  1 x_4867_29 +  1 x_4867_30 +  1 x_4867_31 +  1 x_4867_32 +  1 x_4867_33 +  5.0 x_4867_34 +  1 x_4867_37 +  1 x_4867_38 +  1 x_4867_39 +  1 x_4867_40 +  1 x_4867_41 +  1 x_4867_42 - path_4867 = 0
mprob_4256:  1 x_4256_0 +  1 x_4256_1 +  1 x_4256_2 +  1 x_4256_3 +  1 x_4256_4 +  1 x_4256_5 +  1 x_4256_6 +  1 x_4256_7 +  1 x_4256_8 +  1 x_4256_9 +  131.0 x_4256_10 +  16.0 x_4256_11 +  5.0 x_4256_12 +  1 x_4256_13 +  1 x_4256_14 +  16.0 x_4256_15 +  1 x_4256_16 +  5.0 x_4256_17 +  1 x_4256_18 +  131.0 x_4256_19 +  1 x_4256_20 +  1 x_4256_21 +  1 x_4256_22 +  1 x_4256_23 +  1 x_4256_24 +  1 x_4256_25 +  1 x_4256_26 +  1 x_4256_27 +  1 x_4256_28 +  1 x_4256_29 +  1 x_4256_30 +  1 x_4256_31 +  1 x_4256_32 +  1 x_4256_33 +  5.0 x_4256_34 +  1 x_4256_37 +  1 x_4256_38 +  1 x_4256_39 +  1 x_4256_40 +  1 x_4256_41 +  1 x_4256_42 - path_4256 = 0
mprob_4789:  1 x_4789_0 +  1 x_4789_1 +  1 x_4789_2 +  1 x_4789_3 +  1 x_4789_4 +  1 x_4789_5 +  1 x_4789_6 +  1 x_4789_7 +  1 x_4789_8 +  1 x_4789_9 +  131.0 x_4789_10 +  16.0 x_4789_11 +  5.0 x_4789_12 +  1 x_4789_13 +  1 x_4789_14 +  16.0 x_4789_15 +  1 x_4789_16 +  5.0 x_4789_17 +  1 x_4789_18 +  131.0 x_4789_19 +  1 x_4789_20 +  1 x_4789_21 +  1 x_4789_22 +  1 x_4789_23 +  1 x_4789_24 +  1 x_4789_25 +  1 x_4789_26 +  1 x_4789_27 +  1 x_4789_28 +  1 x_4789_29 +  1 x_4789_30 +  1 x_4789_31 +  1 x_4789_32 +  1 x_4789_33 +  5.0 x_4789_34 +  1 x_4789_37 +  1 x_4789_38 +  1 x_4789_39 +  1 x_4789_40 +  1 x_4789_41 +  1 x_4789_42 - path_4789 = 0
mprob_4026:  1 x_4026_0 +  1 x_4026_1 +  1 x_4026_2 +  1 x_4026_3 +  1 x_4026_4 +  1 x_4026_5 +  1 x_4026_6 +  1 x_4026_7 +  1 x_4026_8 +  1 x_4026_9 +  131.0 x_4026_10 +  16.0 x_4026_11 +  5.0 x_4026_12 +  1 x_4026_13 +  1 x_4026_14 +  16.0 x_4026_15 +  1 x_4026_16 +  5.0 x_4026_17 +  1 x_4026_18 +  131.0 x_4026_19 +  1 x_4026_20 +  1 x_4026_21 +  1 x_4026_22 +  1 x_4026_23 +  1 x_4026_24 +  1 x_4026_25 +  1 x_4026_26 +  1 x_4026_27 +  1 x_4026_28 +  1 x_4026_29 +  1 x_4026_30 +  1 x_4026_31 +  1 x_4026_32 +  1 x_4026_33 +  5.0 x_4026_34 +  1 x_4026_37 +  1 x_4026_38 +  1 x_4026_39 +  1 x_4026_40 +  1 x_4026_41 +  1 x_4026_42 - path_4026 = 0
mprob_4639:  1 x_4639_0 +  1 x_4639_1 +  1 x_4639_2 +  1 x_4639_3 +  1 x_4639_4 +  1 x_4639_5 +  1 x_4639_6 +  1 x_4639_7 +  1 x_4639_8 +  1 x_4639_9 +  131.0 x_4639_10 +  16.0 x_4639_11 +  5.0 x_4639_12 +  1 x_4639_13 +  1 x_4639_14 +  16.0 x_4639_15 +  1 x_4639_16 +  5.0 x_4639_17 +  1 x_4639_18 +  131.0 x_4639_19 +  1 x_4639_20 +  1 x_4639_21 +  1 x_4639_22 +  1 x_4639_23 +  1 x_4639_24 +  1 x_4639_25 +  1 x_4639_26 +  1 x_4639_27 +  1 x_4639_28 +  1 x_4639_29 +  1 x_4639_30 +  1 x_4639_31 +  1 x_4639_32 +  1 x_4639_33 +  5.0 x_4639_34 +  1 x_4639_37 +  1 x_4639_38 +  1 x_4639_39 +  1 x_4639_40 +  1 x_4639_41 +  1 x_4639_42 - path_4639 = 0
mprob_4598:  1 x_4598_0 +  1 x_4598_1 +  1 x_4598_2 +  1 x_4598_3 +  1 x_4598_4 +  1 x_4598_5 +  1 x_4598_6 +  1 x_4598_7 +  1 x_4598_8 +  1 x_4598_9 +  131.0 x_4598_10 +  16.0 x_4598_11 +  5.0 x_4598_12 +  1 x_4598_13 +  1 x_4598_14 +  16.0 x_4598_15 +  1 x_4598_16 +  5.0 x_4598_17 +  1 x_4598_18 +  131.0 x_4598_19 +  1 x_4598_20 +  1 x_4598_21 +  1 x_4598_22 +  1 x_4598_23 +  1 x_4598_24 +  1 x_4598_25 +  1 x_4598_26 +  1 x_4598_27 +  1 x_4598_28 +  1 x_4598_29 +  1 x_4598_30 +  1 x_4598_31 +  1 x_4598_32 +  1 x_4598_33 +  5.0 x_4598_34 +  1 x_4598_37 +  1 x_4598_38 +  1 x_4598_39 +  1 x_4598_40 +  1 x_4598_41 +  1 x_4598_42 - path_4598 = 0
mprob_4772:  1 x_4772_0 +  1 x_4772_1 +  1 x_4772_2 +  1 x_4772_3 +  1 x_4772_4 +  1 x_4772_5 +  1 x_4772_6 +  1 x_4772_7 +  1 x_4772_8 +  1 x_4772_9 +  131.0 x_4772_10 +  16.0 x_4772_11 +  5.0 x_4772_12 +  1 x_4772_13 +  1 x_4772_14 +  16.0 x_4772_15 +  1 x_4772_16 +  5.0 x_4772_17 +  1 x_4772_18 +  131.0 x_4772_19 +  1 x_4772_20 +  1 x_4772_21 +  1 x_4772_22 +  1 x_4772_23 +  1 x_4772_24 +  1 x_4772_25 +  1 x_4772_26 +  1 x_4772_27 +  1 x_4772_28 +  1 x_4772_29 +  1 x_4772_30 +  1 x_4772_31 +  1 x_4772_32 +  1 x_4772_33 +  5.0 x_4772_34 +  1 x_4772_37 +  1 x_4772_38 +  1 x_4772_39 +  1 x_4772_40 +  1 x_4772_41 +  1 x_4772_42 - path_4772 = 0
mprob_4781:  1 x_4781_0 +  1 x_4781_1 +  1 x_4781_2 +  1 x_4781_3 +  1 x_4781_4 +  1 x_4781_5 +  1 x_4781_6 +  1 x_4781_7 +  1 x_4781_8 +  1 x_4781_9 +  131.0 x_4781_10 +  16.0 x_4781_11 +  5.0 x_4781_12 +  1 x_4781_13 +  1 x_4781_14 +  16.0 x_4781_15 +  1 x_4781_16 +  5.0 x_4781_17 +  1 x_4781_18 +  131.0 x_4781_19 +  1 x_4781_20 +  1 x_4781_21 +  1 x_4781_22 +  1 x_4781_23 +  1 x_4781_24 +  1 x_4781_25 +  1 x_4781_26 +  1 x_4781_27 +  1 x_4781_28 +  1 x_4781_29 +  1 x_4781_30 +  1 x_4781_31 +  1 x_4781_32 +  1 x_4781_33 +  5.0 x_4781_34 +  1 x_4781_37 +  1 x_4781_38 +  1 x_4781_39 +  1 x_4781_40 +  1 x_4781_41 +  1 x_4781_42 - path_4781 = 0
mprob_4624:  1 x_4624_0 +  1 x_4624_1 +  1 x_4624_2 +  1 x_4624_3 +  1 x_4624_4 +  1 x_4624_5 +  1 x_4624_6 +  1 x_4624_7 +  1 x_4624_8 +  1 x_4624_9 +  131.0 x_4624_10 +  16.0 x_4624_11 +  5.0 x_4624_12 +  1 x_4624_13 +  1 x_4624_14 +  16.0 x_4624_15 +  1 x_4624_16 +  5.0 x_4624_17 +  1 x_4624_18 +  131.0 x_4624_19 +  1 x_4624_20 +  1 x_4624_21 +  1 x_4624_22 +  1 x_4624_23 +  1 x_4624_24 +  1 x_4624_25 +  1 x_4624_26 +  1 x_4624_27 +  1 x_4624_28 +  1 x_4624_29 +  1 x_4624_30 +  1 x_4624_31 +  1 x_4624_32 +  1 x_4624_33 +  5.0 x_4624_34 +  1 x_4624_37 +  1 x_4624_38 +  1 x_4624_39 +  1 x_4624_40 +  1 x_4624_41 +  1 x_4624_42 - path_4624 = 0
mprob_4877:  1 x_4877_0 +  1 x_4877_1 +  1 x_4877_2 +  1 x_4877_3 +  1 x_4877_4 +  1 x_4877_5 +  1 x_4877_6 +  1 x_4877_7 +  1 x_4877_8 +  1 x_4877_9 +  131.0 x_4877_10 +  16.0 x_4877_11 +  5.0 x_4877_12 +  1 x_4877_13 +  1 x_4877_14 +  16.0 x_4877_15 +  1 x_4877_16 +  5.0 x_4877_17 +  1 x_4877_18 +  131.0 x_4877_19 +  1 x_4877_20 +  1 x_4877_21 +  1 x_4877_22 +  1 x_4877_23 +  1 x_4877_24 +  1 x_4877_25 +  1 x_4877_26 +  1 x_4877_27 +  1 x_4877_28 +  1 x_4877_29 +  1 x_4877_30 +  1 x_4877_31 +  1 x_4877_32 +  1 x_4877_33 +  5.0 x_4877_34 +  1 x_4877_37 +  1 x_4877_38 +  1 x_4877_39 +  1 x_4877_40 +  1 x_4877_41 +  1 x_4877_42 - path_4877 = 0
mprob_4255:  1 x_4255_0 +  1 x_4255_1 +  1 x_4255_2 +  1 x_4255_3 +  1 x_4255_4 +  1 x_4255_5 +  1 x_4255_6 +  1 x_4255_7 +  1 x_4255_8 +  1 x_4255_9 +  131.0 x_4255_10 +  16.0 x_4255_11 +  5.0 x_4255_12 +  1 x_4255_13 +  1 x_4255_14 +  16.0 x_4255_15 +  1 x_4255_16 +  5.0 x_4255_17 +  1 x_4255_18 +  131.0 x_4255_19 +  1 x_4255_20 +  1 x_4255_21 +  1 x_4255_22 +  1 x_4255_23 +  1 x_4255_24 +  1 x_4255_25 +  1 x_4255_26 +  1 x_4255_27 +  1 x_4255_28 +  1 x_4255_29 +  1 x_4255_30 +  1 x_4255_31 +  1 x_4255_32 +  1 x_4255_33 +  5.0 x_4255_34 +  1 x_4255_37 +  1 x_4255_38 +  1 x_4255_39 +  1 x_4255_40 +  1 x_4255_41 +  1 x_4255_42 - path_4255 = 0
mprob_4631:  1 x_4631_0 +  1 x_4631_1 +  1 x_4631_2 +  1 x_4631_3 +  1 x_4631_4 +  1 x_4631_5 +  1 x_4631_6 +  1 x_4631_7 +  1 x_4631_8 +  1 x_4631_9 +  131.0 x_4631_10 +  16.0 x_4631_11 +  5.0 x_4631_12 +  1 x_4631_13 +  1 x_4631_14 +  16.0 x_4631_15 +  1 x_4631_16 +  5.0 x_4631_17 +  1 x_4631_18 +  131.0 x_4631_19 +  1 x_4631_20 +  1 x_4631_21 +  1 x_4631_22 +  1 x_4631_23 +  1 x_4631_24 +  1 x_4631_25 +  1 x_4631_26 +  1 x_4631_27 +  1 x_4631_28 +  1 x_4631_29 +  1 x_4631_30 +  1 x_4631_31 +  1 x_4631_32 +  1 x_4631_33 +  5.0 x_4631_34 +  1 x_4631_37 +  1 x_4631_38 +  1 x_4631_39 +  1 x_4631_40 +  1 x_4631_41 +  1 x_4631_42 - path_4631 = 0
mprob_3740:  1 x_3740_0 +  1 x_3740_1 +  1 x_3740_2 +  1 x_3740_3 +  1 x_3740_4 +  1 x_3740_5 +  1 x_3740_6 +  1 x_3740_7 +  1 x_3740_8 +  1 x_3740_9 +  131.0 x_3740_10 +  16.0 x_3740_11 +  5.0 x_3740_12 +  1 x_3740_13 +  1 x_3740_14 +  16.0 x_3740_15 +  1 x_3740_16 +  5.0 x_3740_17 +  1 x_3740_18 +  131.0 x_3740_19 +  1 x_3740_20 +  1 x_3740_21 +  1 x_3740_22 +  1 x_3740_23 +  1 x_3740_24 +  1 x_3740_25 +  1 x_3740_26 +  1 x_3740_27 +  1 x_3740_28 +  1 x_3740_29 +  1 x_3740_30 +  1 x_3740_31 +  1 x_3740_32 +  1 x_3740_33 +  5.0 x_3740_34 +  1 x_3740_37 +  1 x_3740_38 +  1 x_3740_39 +  1 x_3740_40 +  1 x_3740_41 +  1 x_3740_42 - path_3740 = 0
mprob_4637:  1 x_4637_0 +  1 x_4637_1 +  1 x_4637_2 +  1 x_4637_3 +  1 x_4637_4 +  1 x_4637_5 +  1 x_4637_6 +  1 x_4637_7 +  1 x_4637_8 +  1 x_4637_9 +  131.0 x_4637_10 +  16.0 x_4637_11 +  5.0 x_4637_12 +  1 x_4637_13 +  1 x_4637_14 +  16.0 x_4637_15 +  1 x_4637_16 +  5.0 x_4637_17 +  1 x_4637_18 +  131.0 x_4637_19 +  1 x_4637_20 +  1 x_4637_21 +  1 x_4637_22 +  1 x_4637_23 +  1 x_4637_24 +  1 x_4637_25 +  1 x_4637_26 +  1 x_4637_27 +  1 x_4637_28 +  1 x_4637_29 +  1 x_4637_30 +  1 x_4637_31 +  1 x_4637_32 +  1 x_4637_33 +  5.0 x_4637_34 +  1 x_4637_37 +  1 x_4637_38 +  1 x_4637_39 +  1 x_4637_40 +  1 x_4637_41 +  1 x_4637_42 - path_4637 = 0
mprob_3691:  1 x_3691_0 +  1 x_3691_1 +  1 x_3691_2 +  1 x_3691_3 +  1 x_3691_4 +  1 x_3691_5 +  1 x_3691_6 +  1 x_3691_7 +  1 x_3691_8 +  1 x_3691_9 +  131.0 x_3691_10 +  16.0 x_3691_11 +  5.0 x_3691_12 +  1 x_3691_13 +  1 x_3691_14 +  16.0 x_3691_15 +  1 x_3691_16 +  5.0 x_3691_17 +  1 x_3691_18 +  131.0 x_3691_19 +  1 x_3691_20 +  1 x_3691_21 +  1 x_3691_22 +  1 x_3691_23 +  1 x_3691_24 +  1 x_3691_25 +  1 x_3691_26 +  1 x_3691_27 +  1 x_3691_28 +  1 x_3691_29 +  1 x_3691_30 +  1 x_3691_31 +  1 x_3691_32 +  1 x_3691_33 +  5.0 x_3691_34 +  1 x_3691_37 +  1 x_3691_38 +  1 x_3691_39 +  1 x_3691_40 +  1 x_3691_41 +  1 x_3691_42 - path_3691 = 0
mprob_4709:  1 x_4709_0 +  1 x_4709_1 +  1 x_4709_2 +  1 x_4709_3 +  1 x_4709_4 +  1 x_4709_5 +  1 x_4709_6 +  1 x_4709_7 +  1 x_4709_8 +  1 x_4709_9 +  131.0 x_4709_10 +  16.0 x_4709_11 +  5.0 x_4709_12 +  1 x_4709_13 +  1 x_4709_14 +  16.0 x_4709_15 +  1 x_4709_16 +  5.0 x_4709_17 +  1 x_4709_18 +  131.0 x_4709_19 +  1 x_4709_20 +  1 x_4709_21 +  1 x_4709_22 +  1 x_4709_23 +  1 x_4709_24 +  1 x_4709_25 +  1 x_4709_26 +  1 x_4709_27 +  1 x_4709_28 +  1 x_4709_29 +  1 x_4709_30 +  1 x_4709_31 +  1 x_4709_32 +  1 x_4709_33 +  5.0 x_4709_34 +  1 x_4709_37 +  1 x_4709_38 +  1 x_4709_39 +  1 x_4709_40 +  1 x_4709_41 +  1 x_4709_42 - path_4709 = 0
mprob_4758:  1 x_4758_0 +  1 x_4758_1 +  1 x_4758_2 +  1 x_4758_3 +  1 x_4758_4 +  1 x_4758_5 +  1 x_4758_6 +  1 x_4758_7 +  1 x_4758_8 +  1 x_4758_9 +  131.0 x_4758_10 +  16.0 x_4758_11 +  5.0 x_4758_12 +  1 x_4758_13 +  1 x_4758_14 +  16.0 x_4758_15 +  1 x_4758_16 +  5.0 x_4758_17 +  1 x_4758_18 +  131.0 x_4758_19 +  1 x_4758_20 +  1 x_4758_21 +  1 x_4758_22 +  1 x_4758_23 +  1 x_4758_24 +  1 x_4758_25 +  1 x_4758_26 +  1 x_4758_27 +  1 x_4758_28 +  1 x_4758_29 +  1 x_4758_30 +  1 x_4758_31 +  1 x_4758_32 +  1 x_4758_33 +  5.0 x_4758_34 +  1 x_4758_37 +  1 x_4758_38 +  1 x_4758_39 +  1 x_4758_40 +  1 x_4758_41 +  1 x_4758_42 - path_4758 = 0
mprob_4548:  1 x_4548_0 +  1 x_4548_1 +  1 x_4548_2 +  1 x_4548_3 +  1 x_4548_4 +  1 x_4548_5 +  1 x_4548_6 +  1 x_4548_7 +  1 x_4548_8 +  1 x_4548_9 +  131.0 x_4548_10 +  16.0 x_4548_11 +  5.0 x_4548_12 +  1 x_4548_13 +  1 x_4548_14 +  16.0 x_4548_15 +  1 x_4548_16 +  5.0 x_4548_17 +  1 x_4548_18 +  131.0 x_4548_19 +  1 x_4548_20 +  1 x_4548_21 +  1 x_4548_22 +  1 x_4548_23 +  1 x_4548_24 +  1 x_4548_25 +  1 x_4548_26 +  1 x_4548_27 +  1 x_4548_28 +  1 x_4548_29 +  1 x_4548_30 +  1 x_4548_31 +  1 x_4548_32 +  1 x_4548_33 +  5.0 x_4548_34 +  1 x_4548_37 +  1 x_4548_38 +  1 x_4548_39 +  1 x_4548_40 +  1 x_4548_41 +  1 x_4548_42 - path_4548 = 0
mprob_4423:  1 x_4423_0 +  1 x_4423_1 +  1 x_4423_2 +  1 x_4423_3 +  1 x_4423_4 +  1 x_4423_5 +  1 x_4423_6 +  1 x_4423_7 +  1 x_4423_8 +  1 x_4423_9 +  131.0 x_4423_10 +  16.0 x_4423_11 +  5.0 x_4423_12 +  1 x_4423_13 +  1 x_4423_14 +  16.0 x_4423_15 +  1 x_4423_16 +  5.0 x_4423_17 +  1 x_4423_18 +  131.0 x_4423_19 +  1 x_4423_20 +  1 x_4423_21 +  1 x_4423_22 +  1 x_4423_23 +  1 x_4423_24 +  1 x_4423_25 +  1 x_4423_26 +  1 x_4423_27 +  1 x_4423_28 +  1 x_4423_29 +  1 x_4423_30 +  1 x_4423_31 +  1 x_4423_32 +  1 x_4423_33 +  5.0 x_4423_34 +  1 x_4423_37 +  1 x_4423_38 +  1 x_4423_39 +  1 x_4423_40 +  1 x_4423_41 +  1 x_4423_42 - path_4423 = 0
mprob_4331:  1 x_4331_0 +  1 x_4331_1 +  1 x_4331_2 +  1 x_4331_3 +  1 x_4331_4 +  1 x_4331_5 +  1 x_4331_6 +  1 x_4331_7 +  1 x_4331_8 +  1 x_4331_9 +  131.0 x_4331_10 +  16.0 x_4331_11 +  5.0 x_4331_12 +  1 x_4331_13 +  1 x_4331_14 +  16.0 x_4331_15 +  1 x_4331_16 +  5.0 x_4331_17 +  1 x_4331_18 +  131.0 x_4331_19 +  1 x_4331_20 +  1 x_4331_21 +  1 x_4331_22 +  1 x_4331_23 +  1 x_4331_24 +  1 x_4331_25 +  1 x_4331_26 +  1 x_4331_27 +  1 x_4331_28 +  1 x_4331_29 +  1 x_4331_30 +  1 x_4331_31 +  1 x_4331_32 +  1 x_4331_33 +  5.0 x_4331_34 +  1 x_4331_37 +  1 x_4331_38 +  1 x_4331_39 +  1 x_4331_40 +  1 x_4331_41 +  1 x_4331_42 - path_4331 = 0
mprob_4744:  1 x_4744_0 +  1 x_4744_1 +  1 x_4744_2 +  1 x_4744_3 +  1 x_4744_4 +  1 x_4744_5 +  1 x_4744_6 +  1 x_4744_7 +  1 x_4744_8 +  1 x_4744_9 +  131.0 x_4744_10 +  16.0 x_4744_11 +  5.0 x_4744_12 +  1 x_4744_13 +  1 x_4744_14 +  16.0 x_4744_15 +  1 x_4744_16 +  5.0 x_4744_17 +  1 x_4744_18 +  131.0 x_4744_19 +  1 x_4744_20 +  1 x_4744_21 +  1 x_4744_22 +  1 x_4744_23 +  1 x_4744_24 +  1 x_4744_25 +  1 x_4744_26 +  1 x_4744_27 +  1 x_4744_28 +  1 x_4744_29 +  1 x_4744_30 +  1 x_4744_31 +  1 x_4744_32 +  1 x_4744_33 +  5.0 x_4744_34 +  1 x_4744_37 +  1 x_4744_38 +  1 x_4744_39 +  1 x_4744_40 +  1 x_4744_41 +  1 x_4744_42 - path_4744 = 0
mprob_4210:  1 x_4210_0 +  1 x_4210_1 +  1 x_4210_2 +  1 x_4210_3 +  1 x_4210_4 +  1 x_4210_5 +  1 x_4210_6 +  1 x_4210_7 +  1 x_4210_8 +  1 x_4210_9 +  131.0 x_4210_10 +  16.0 x_4210_11 +  5.0 x_4210_12 +  1 x_4210_13 +  1 x_4210_14 +  16.0 x_4210_15 +  1 x_4210_16 +  5.0 x_4210_17 +  1 x_4210_18 +  131.0 x_4210_19 +  1 x_4210_20 +  1 x_4210_21 +  1 x_4210_22 +  1 x_4210_23 +  1 x_4210_24 +  1 x_4210_25 +  1 x_4210_26 +  1 x_4210_27 +  1 x_4210_28 +  1 x_4210_29 +  1 x_4210_30 +  1 x_4210_31 +  1 x_4210_32 +  1 x_4210_33 +  5.0 x_4210_34 +  1 x_4210_37 +  1 x_4210_38 +  1 x_4210_39 +  1 x_4210_40 +  1 x_4210_41 +  1 x_4210_42 - path_4210 = 0
mprob_505:  1 x_505_0 +  1 x_505_1 +  1 x_505_2 +  1 x_505_3 +  1 x_505_4 +  1 x_505_5 +  1 x_505_6 +  1 x_505_7 +  1 x_505_8 +  1 x_505_9 +  131.0 x_505_10 +  16.0 x_505_11 +  5.0 x_505_12 +  1 x_505_13 +  1 x_505_14 +  16.0 x_505_15 +  1 x_505_16 +  5.0 x_505_17 +  1 x_505_18 +  131.0 x_505_19 +  1 x_505_20 +  1 x_505_21 +  1 x_505_22 +  1 x_505_23 +  1 x_505_24 +  1 x_505_25 +  1 x_505_26 +  1 x_505_27 +  1 x_505_28 +  1 x_505_29 +  1 x_505_30 +  1 x_505_31 +  1 x_505_32 +  1 x_505_33 +  5.0 x_505_34 +  1 x_505_37 +  1 x_505_38 +  1 x_505_39 +  1 x_505_40 +  1 x_505_41 +  1 x_505_42 - path_505 = 0
mprob_3161:  1 x_3161_0 +  1 x_3161_1 +  1 x_3161_2 +  1 x_3161_3 +  1 x_3161_4 +  1 x_3161_5 +  1 x_3161_6 +  1 x_3161_7 +  1 x_3161_8 +  1 x_3161_9 +  131.0 x_3161_10 +  16.0 x_3161_11 +  5.0 x_3161_12 +  1 x_3161_13 +  1 x_3161_14 +  16.0 x_3161_15 +  1 x_3161_16 +  5.0 x_3161_17 +  1 x_3161_18 +  131.0 x_3161_19 +  1 x_3161_20 +  1 x_3161_21 +  1 x_3161_22 +  1 x_3161_23 +  1 x_3161_24 +  1 x_3161_25 +  1 x_3161_26 +  1 x_3161_27 +  1 x_3161_28 +  1 x_3161_29 +  1 x_3161_30 +  1 x_3161_31 +  1 x_3161_32 +  1 x_3161_33 +  5.0 x_3161_34 +  1 x_3161_37 +  1 x_3161_38 +  1 x_3161_39 +  1 x_3161_40 +  1 x_3161_41 +  1 x_3161_42 - path_3161 = 0
mprob_4359:  1 x_4359_0 +  1 x_4359_1 +  1 x_4359_2 +  1 x_4359_3 +  1 x_4359_4 +  1 x_4359_5 +  1 x_4359_6 +  1 x_4359_7 +  1 x_4359_8 +  1 x_4359_9 +  131.0 x_4359_10 +  16.0 x_4359_11 +  5.0 x_4359_12 +  1 x_4359_13 +  1 x_4359_14 +  16.0 x_4359_15 +  1 x_4359_16 +  5.0 x_4359_17 +  1 x_4359_18 +  131.0 x_4359_19 +  1 x_4359_20 +  1 x_4359_21 +  1 x_4359_22 +  1 x_4359_23 +  1 x_4359_24 +  1 x_4359_25 +  1 x_4359_26 +  1 x_4359_27 +  1 x_4359_28 +  1 x_4359_29 +  1 x_4359_30 +  1 x_4359_31 +  1 x_4359_32 +  1 x_4359_33 +  5.0 x_4359_34 +  1 x_4359_37 +  1 x_4359_38 +  1 x_4359_39 +  1 x_4359_40 +  1 x_4359_41 +  1 x_4359_42 - path_4359 = 0
mprob_4488:  1 x_4488_0 +  1 x_4488_1 +  1 x_4488_2 +  1 x_4488_3 +  1 x_4488_4 +  1 x_4488_5 +  1 x_4488_6 +  1 x_4488_7 +  1 x_4488_8 +  1 x_4488_9 +  131.0 x_4488_10 +  16.0 x_4488_11 +  5.0 x_4488_12 +  1 x_4488_13 +  1 x_4488_14 +  16.0 x_4488_15 +  1 x_4488_16 +  5.0 x_4488_17 +  1 x_4488_18 +  131.0 x_4488_19 +  1 x_4488_20 +  1 x_4488_21 +  1 x_4488_22 +  1 x_4488_23 +  1 x_4488_24 +  1 x_4488_25 +  1 x_4488_26 +  1 x_4488_27 +  1 x_4488_28 +  1 x_4488_29 +  1 x_4488_30 +  1 x_4488_31 +  1 x_4488_32 +  1 x_4488_33 +  5.0 x_4488_34 +  1 x_4488_37 +  1 x_4488_38 +  1 x_4488_39 +  1 x_4488_40 +  1 x_4488_41 +  1 x_4488_42 - path_4488 = 0
mprob_4463:  1 x_4463_0 +  1 x_4463_1 +  1 x_4463_2 +  1 x_4463_3 +  1 x_4463_4 +  1 x_4463_5 +  1 x_4463_6 +  1 x_4463_7 +  1 x_4463_8 +  1 x_4463_9 +  131.0 x_4463_10 +  16.0 x_4463_11 +  5.0 x_4463_12 +  1 x_4463_13 +  1 x_4463_14 +  16.0 x_4463_15 +  1 x_4463_16 +  5.0 x_4463_17 +  1 x_4463_18 +  131.0 x_4463_19 +  1 x_4463_20 +  1 x_4463_21 +  1 x_4463_22 +  1 x_4463_23 +  1 x_4463_24 +  1 x_4463_25 +  1 x_4463_26 +  1 x_4463_27 +  1 x_4463_28 +  1 x_4463_29 +  1 x_4463_30 +  1 x_4463_31 +  1 x_4463_32 +  1 x_4463_33 +  5.0 x_4463_34 +  1 x_4463_37 +  1 x_4463_38 +  1 x_4463_39 +  1 x_4463_40 +  1 x_4463_41 +  1 x_4463_42 - path_4463 = 0
mprob_4651:  1 x_4651_0 +  1 x_4651_1 +  1 x_4651_2 +  1 x_4651_3 +  1 x_4651_4 +  1 x_4651_5 +  1 x_4651_6 +  1 x_4651_7 +  1 x_4651_8 +  1 x_4651_9 +  131.0 x_4651_10 +  16.0 x_4651_11 +  5.0 x_4651_12 +  1 x_4651_13 +  1 x_4651_14 +  16.0 x_4651_15 +  1 x_4651_16 +  5.0 x_4651_17 +  1 x_4651_18 +  131.0 x_4651_19 +  1 x_4651_20 +  1 x_4651_21 +  1 x_4651_22 +  1 x_4651_23 +  1 x_4651_24 +  1 x_4651_25 +  1 x_4651_26 +  1 x_4651_27 +  1 x_4651_28 +  1 x_4651_29 +  1 x_4651_30 +  1 x_4651_31 +  1 x_4651_32 +  1 x_4651_33 +  5.0 x_4651_34 +  1 x_4651_37 +  1 x_4651_38 +  1 x_4651_39 +  1 x_4651_40 +  1 x_4651_41 +  1 x_4651_42 - path_4651 = 0
mprob_4771:  1 x_4771_0 +  1 x_4771_1 +  1 x_4771_2 +  1 x_4771_3 +  1 x_4771_4 +  1 x_4771_5 +  1 x_4771_6 +  1 x_4771_7 +  1 x_4771_8 +  1 x_4771_9 +  131.0 x_4771_10 +  16.0 x_4771_11 +  5.0 x_4771_12 +  1 x_4771_13 +  1 x_4771_14 +  16.0 x_4771_15 +  1 x_4771_16 +  5.0 x_4771_17 +  1 x_4771_18 +  131.0 x_4771_19 +  1 x_4771_20 +  1 x_4771_21 +  1 x_4771_22 +  1 x_4771_23 +  1 x_4771_24 +  1 x_4771_25 +  1 x_4771_26 +  1 x_4771_27 +  1 x_4771_28 +  1 x_4771_29 +  1 x_4771_30 +  1 x_4771_31 +  1 x_4771_32 +  1 x_4771_33 +  5.0 x_4771_34 +  1 x_4771_37 +  1 x_4771_38 +  1 x_4771_39 +  1 x_4771_40 +  1 x_4771_41 +  1 x_4771_42 - path_4771 = 0
mprob_4847:  1 x_4847_0 +  1 x_4847_1 +  1 x_4847_2 +  1 x_4847_3 +  1 x_4847_4 +  1 x_4847_5 +  1 x_4847_6 +  1 x_4847_7 +  1 x_4847_8 +  1 x_4847_9 +  131.0 x_4847_10 +  16.0 x_4847_11 +  5.0 x_4847_12 +  1 x_4847_13 +  1 x_4847_14 +  16.0 x_4847_15 +  1 x_4847_16 +  5.0 x_4847_17 +  1 x_4847_18 +  131.0 x_4847_19 +  1 x_4847_20 +  1 x_4847_21 +  1 x_4847_22 +  1 x_4847_23 +  1 x_4847_24 +  1 x_4847_25 +  1 x_4847_26 +  1 x_4847_27 +  1 x_4847_28 +  1 x_4847_29 +  1 x_4847_30 +  1 x_4847_31 +  1 x_4847_32 +  1 x_4847_33 +  5.0 x_4847_34 +  1 x_4847_37 +  1 x_4847_38 +  1 x_4847_39 +  1 x_4847_40 +  1 x_4847_41 +  1 x_4847_42 - path_4847 = 0
mprob_4734:  1 x_4734_0 +  1 x_4734_1 +  1 x_4734_2 +  1 x_4734_3 +  1 x_4734_4 +  1 x_4734_5 +  1 x_4734_6 +  1 x_4734_7 +  1 x_4734_8 +  1 x_4734_9 +  131.0 x_4734_10 +  16.0 x_4734_11 +  5.0 x_4734_12 +  1 x_4734_13 +  1 x_4734_14 +  16.0 x_4734_15 +  1 x_4734_16 +  5.0 x_4734_17 +  1 x_4734_18 +  131.0 x_4734_19 +  1 x_4734_20 +  1 x_4734_21 +  1 x_4734_22 +  1 x_4734_23 +  1 x_4734_24 +  1 x_4734_25 +  1 x_4734_26 +  1 x_4734_27 +  1 x_4734_28 +  1 x_4734_29 +  1 x_4734_30 +  1 x_4734_31 +  1 x_4734_32 +  1 x_4734_33 +  5.0 x_4734_34 +  1 x_4734_37 +  1 x_4734_38 +  1 x_4734_39 +  1 x_4734_40 +  1 x_4734_41 +  1 x_4734_42 - path_4734 = 0
mprob_4432:  1 x_4432_0 +  1 x_4432_1 +  1 x_4432_2 +  1 x_4432_3 +  1 x_4432_4 +  1 x_4432_5 +  1 x_4432_6 +  1 x_4432_7 +  1 x_4432_8 +  1 x_4432_9 +  131.0 x_4432_10 +  16.0 x_4432_11 +  5.0 x_4432_12 +  1 x_4432_13 +  1 x_4432_14 +  16.0 x_4432_15 +  1 x_4432_16 +  5.0 x_4432_17 +  1 x_4432_18 +  131.0 x_4432_19 +  1 x_4432_20 +  1 x_4432_21 +  1 x_4432_22 +  1 x_4432_23 +  1 x_4432_24 +  1 x_4432_25 +  1 x_4432_26 +  1 x_4432_27 +  1 x_4432_28 +  1 x_4432_29 +  1 x_4432_30 +  1 x_4432_31 +  1 x_4432_32 +  1 x_4432_33 +  5.0 x_4432_34 +  1 x_4432_37 +  1 x_4432_38 +  1 x_4432_39 +  1 x_4432_40 +  1 x_4432_41 +  1 x_4432_42 - path_4432 = 0
mprob_4621:  1 x_4621_0 +  1 x_4621_1 +  1 x_4621_2 +  1 x_4621_3 +  1 x_4621_4 +  1 x_4621_5 +  1 x_4621_6 +  1 x_4621_7 +  1 x_4621_8 +  1 x_4621_9 +  131.0 x_4621_10 +  16.0 x_4621_11 +  5.0 x_4621_12 +  1 x_4621_13 +  1 x_4621_14 +  16.0 x_4621_15 +  1 x_4621_16 +  5.0 x_4621_17 +  1 x_4621_18 +  131.0 x_4621_19 +  1 x_4621_20 +  1 x_4621_21 +  1 x_4621_22 +  1 x_4621_23 +  1 x_4621_24 +  1 x_4621_25 +  1 x_4621_26 +  1 x_4621_27 +  1 x_4621_28 +  1 x_4621_29 +  1 x_4621_30 +  1 x_4621_31 +  1 x_4621_32 +  1 x_4621_33 +  5.0 x_4621_34 +  1 x_4621_37 +  1 x_4621_38 +  1 x_4621_39 +  1 x_4621_40 +  1 x_4621_41 +  1 x_4621_42 - path_4621 = 0
mprob_4710:  1 x_4710_0 +  1 x_4710_1 +  1 x_4710_2 +  1 x_4710_3 +  1 x_4710_4 +  1 x_4710_5 +  1 x_4710_6 +  1 x_4710_7 +  1 x_4710_8 +  1 x_4710_9 +  131.0 x_4710_10 +  16.0 x_4710_11 +  5.0 x_4710_12 +  1 x_4710_13 +  1 x_4710_14 +  16.0 x_4710_15 +  1 x_4710_16 +  5.0 x_4710_17 +  1 x_4710_18 +  131.0 x_4710_19 +  1 x_4710_20 +  1 x_4710_21 +  1 x_4710_22 +  1 x_4710_23 +  1 x_4710_24 +  1 x_4710_25 +  1 x_4710_26 +  1 x_4710_27 +  1 x_4710_28 +  1 x_4710_29 +  1 x_4710_30 +  1 x_4710_31 +  1 x_4710_32 +  1 x_4710_33 +  5.0 x_4710_34 +  1 x_4710_37 +  1 x_4710_38 +  1 x_4710_39 +  1 x_4710_40 +  1 x_4710_41 +  1 x_4710_42 - path_4710 = 0
mprob_4865:  1 x_4865_0 +  1 x_4865_1 +  1 x_4865_2 +  1 x_4865_3 +  1 x_4865_4 +  1 x_4865_5 +  1 x_4865_6 +  1 x_4865_7 +  1 x_4865_8 +  1 x_4865_9 +  131.0 x_4865_10 +  16.0 x_4865_11 +  5.0 x_4865_12 +  1 x_4865_13 +  1 x_4865_14 +  16.0 x_4865_15 +  1 x_4865_16 +  5.0 x_4865_17 +  1 x_4865_18 +  131.0 x_4865_19 +  1 x_4865_20 +  1 x_4865_21 +  1 x_4865_22 +  1 x_4865_23 +  1 x_4865_24 +  1 x_4865_25 +  1 x_4865_26 +  1 x_4865_27 +  1 x_4865_28 +  1 x_4865_29 +  1 x_4865_30 +  1 x_4865_31 +  1 x_4865_32 +  1 x_4865_33 +  5.0 x_4865_34 +  1 x_4865_37 +  1 x_4865_38 +  1 x_4865_39 +  1 x_4865_40 +  1 x_4865_41 +  1 x_4865_42 - path_4865 = 0
mprob_4647:  1 x_4647_0 +  1 x_4647_1 +  1 x_4647_2 +  1 x_4647_3 +  1 x_4647_4 +  1 x_4647_5 +  1 x_4647_6 +  1 x_4647_7 +  1 x_4647_8 +  1 x_4647_9 +  131.0 x_4647_10 +  16.0 x_4647_11 +  5.0 x_4647_12 +  1 x_4647_13 +  1 x_4647_14 +  16.0 x_4647_15 +  1 x_4647_16 +  5.0 x_4647_17 +  1 x_4647_18 +  131.0 x_4647_19 +  1 x_4647_20 +  1 x_4647_21 +  1 x_4647_22 +  1 x_4647_23 +  1 x_4647_24 +  1 x_4647_25 +  1 x_4647_26 +  1 x_4647_27 +  1 x_4647_28 +  1 x_4647_29 +  1 x_4647_30 +  1 x_4647_31 +  1 x_4647_32 +  1 x_4647_33 +  5.0 x_4647_34 +  1 x_4647_37 +  1 x_4647_38 +  1 x_4647_39 +  1 x_4647_40 +  1 x_4647_41 +  1 x_4647_42 - path_4647 = 0
mprob_3381:  1 x_3381_0 +  1 x_3381_1 +  1 x_3381_2 +  1 x_3381_3 +  1 x_3381_4 +  1 x_3381_5 +  1 x_3381_6 +  1 x_3381_7 +  1 x_3381_8 +  1 x_3381_9 +  131.0 x_3381_10 +  16.0 x_3381_11 +  5.0 x_3381_12 +  1 x_3381_13 +  1 x_3381_14 +  16.0 x_3381_15 +  1 x_3381_16 +  5.0 x_3381_17 +  1 x_3381_18 +  131.0 x_3381_19 +  1 x_3381_20 +  1 x_3381_21 +  1 x_3381_22 +  1 x_3381_23 +  1 x_3381_24 +  1 x_3381_25 +  1 x_3381_26 +  1 x_3381_27 +  1 x_3381_28 +  1 x_3381_29 +  1 x_3381_30 +  1 x_3381_31 +  1 x_3381_32 +  1 x_3381_33 +  5.0 x_3381_34 +  1 x_3381_37 +  1 x_3381_38 +  1 x_3381_39 +  1 x_3381_40 +  1 x_3381_41 +  1 x_3381_42 - path_3381 = 0
mprob_3209:  1 x_3209_0 +  1 x_3209_1 +  1 x_3209_2 +  1 x_3209_3 +  1 x_3209_4 +  1 x_3209_5 +  1 x_3209_6 +  1 x_3209_7 +  1 x_3209_8 +  1 x_3209_9 +  131.0 x_3209_10 +  16.0 x_3209_11 +  5.0 x_3209_12 +  1 x_3209_13 +  1 x_3209_14 +  16.0 x_3209_15 +  1 x_3209_16 +  5.0 x_3209_17 +  1 x_3209_18 +  131.0 x_3209_19 +  1 x_3209_20 +  1 x_3209_21 +  1 x_3209_22 +  1 x_3209_23 +  1 x_3209_24 +  1 x_3209_25 +  1 x_3209_26 +  1 x_3209_27 +  1 x_3209_28 +  1 x_3209_29 +  1 x_3209_30 +  1 x_3209_31 +  1 x_3209_32 +  1 x_3209_33 +  5.0 x_3209_34 +  1 x_3209_37 +  1 x_3209_38 +  1 x_3209_39 +  1 x_3209_40 +  1 x_3209_41 +  1 x_3209_42 - path_3209 = 0
mprob_4453:  1 x_4453_0 +  1 x_4453_1 +  1 x_4453_2 +  1 x_4453_3 +  1 x_4453_4 +  1 x_4453_5 +  1 x_4453_6 +  1 x_4453_7 +  1 x_4453_8 +  1 x_4453_9 +  131.0 x_4453_10 +  16.0 x_4453_11 +  5.0 x_4453_12 +  1 x_4453_13 +  1 x_4453_14 +  16.0 x_4453_15 +  1 x_4453_16 +  5.0 x_4453_17 +  1 x_4453_18 +  131.0 x_4453_19 +  1 x_4453_20 +  1 x_4453_21 +  1 x_4453_22 +  1 x_4453_23 +  1 x_4453_24 +  1 x_4453_25 +  1 x_4453_26 +  1 x_4453_27 +  1 x_4453_28 +  1 x_4453_29 +  1 x_4453_30 +  1 x_4453_31 +  1 x_4453_32 +  1 x_4453_33 +  5.0 x_4453_34 +  1 x_4453_37 +  1 x_4453_38 +  1 x_4453_39 +  1 x_4453_40 +  1 x_4453_41 +  1 x_4453_42 - path_4453 = 0
mprob_2620:  1 x_2620_0 +  1 x_2620_1 +  1 x_2620_2 +  1 x_2620_3 +  1 x_2620_4 +  1 x_2620_5 +  1 x_2620_6 +  1 x_2620_7 +  1 x_2620_8 +  1 x_2620_9 +  131.0 x_2620_10 +  16.0 x_2620_11 +  5.0 x_2620_12 +  1 x_2620_13 +  1 x_2620_14 +  16.0 x_2620_15 +  1 x_2620_16 +  5.0 x_2620_17 +  1 x_2620_18 +  131.0 x_2620_19 +  1 x_2620_20 +  1 x_2620_21 +  1 x_2620_22 +  1 x_2620_23 +  1 x_2620_24 +  1 x_2620_25 +  1 x_2620_26 +  1 x_2620_27 +  1 x_2620_28 +  1 x_2620_29 +  1 x_2620_30 +  1 x_2620_31 +  1 x_2620_32 +  1 x_2620_33 +  5.0 x_2620_34 +  1 x_2620_37 +  1 x_2620_38 +  1 x_2620_39 +  1 x_2620_40 +  1 x_2620_41 +  1 x_2620_42 - path_2620 = 0
mprob_4130:  1 x_4130_0 +  1 x_4130_1 +  1 x_4130_2 +  1 x_4130_3 +  1 x_4130_4 +  1 x_4130_5 +  1 x_4130_6 +  1 x_4130_7 +  1 x_4130_8 +  1 x_4130_9 +  131.0 x_4130_10 +  16.0 x_4130_11 +  5.0 x_4130_12 +  1 x_4130_13 +  1 x_4130_14 +  16.0 x_4130_15 +  1 x_4130_16 +  5.0 x_4130_17 +  1 x_4130_18 +  131.0 x_4130_19 +  1 x_4130_20 +  1 x_4130_21 +  1 x_4130_22 +  1 x_4130_23 +  1 x_4130_24 +  1 x_4130_25 +  1 x_4130_26 +  1 x_4130_27 +  1 x_4130_28 +  1 x_4130_29 +  1 x_4130_30 +  1 x_4130_31 +  1 x_4130_32 +  1 x_4130_33 +  5.0 x_4130_34 +  1 x_4130_37 +  1 x_4130_38 +  1 x_4130_39 +  1 x_4130_40 +  1 x_4130_41 +  1 x_4130_42 - path_4130 = 0
mprob_4354:  1 x_4354_0 +  1 x_4354_1 +  1 x_4354_2 +  1 x_4354_3 +  1 x_4354_4 +  1 x_4354_5 +  1 x_4354_6 +  1 x_4354_7 +  1 x_4354_8 +  1 x_4354_9 +  131.0 x_4354_10 +  16.0 x_4354_11 +  5.0 x_4354_12 +  1 x_4354_13 +  1 x_4354_14 +  16.0 x_4354_15 +  1 x_4354_16 +  5.0 x_4354_17 +  1 x_4354_18 +  131.0 x_4354_19 +  1 x_4354_20 +  1 x_4354_21 +  1 x_4354_22 +  1 x_4354_23 +  1 x_4354_24 +  1 x_4354_25 +  1 x_4354_26 +  1 x_4354_27 +  1 x_4354_28 +  1 x_4354_29 +  1 x_4354_30 +  1 x_4354_31 +  1 x_4354_32 +  1 x_4354_33 +  5.0 x_4354_34 +  1 x_4354_37 +  1 x_4354_38 +  1 x_4354_39 +  1 x_4354_40 +  1 x_4354_41 +  1 x_4354_42 - path_4354 = 0
mprob_4433:  1 x_4433_0 +  1 x_4433_1 +  1 x_4433_2 +  1 x_4433_3 +  1 x_4433_4 +  1 x_4433_5 +  1 x_4433_6 +  1 x_4433_7 +  1 x_4433_8 +  1 x_4433_9 +  131.0 x_4433_10 +  16.0 x_4433_11 +  5.0 x_4433_12 +  1 x_4433_13 +  1 x_4433_14 +  16.0 x_4433_15 +  1 x_4433_16 +  5.0 x_4433_17 +  1 x_4433_18 +  131.0 x_4433_19 +  1 x_4433_20 +  1 x_4433_21 +  1 x_4433_22 +  1 x_4433_23 +  1 x_4433_24 +  1 x_4433_25 +  1 x_4433_26 +  1 x_4433_27 +  1 x_4433_28 +  1 x_4433_29 +  1 x_4433_30 +  1 x_4433_31 +  1 x_4433_32 +  1 x_4433_33 +  5.0 x_4433_34 +  1 x_4433_37 +  1 x_4433_38 +  1 x_4433_39 +  1 x_4433_40 +  1 x_4433_41 +  1 x_4433_42 - path_4433 = 0
mprob_4518:  1 x_4518_0 +  1 x_4518_1 +  1 x_4518_2 +  1 x_4518_3 +  1 x_4518_4 +  1 x_4518_5 +  1 x_4518_6 +  1 x_4518_7 +  1 x_4518_8 +  1 x_4518_9 +  131.0 x_4518_10 +  16.0 x_4518_11 +  5.0 x_4518_12 +  1 x_4518_13 +  1 x_4518_14 +  16.0 x_4518_15 +  1 x_4518_16 +  5.0 x_4518_17 +  1 x_4518_18 +  131.0 x_4518_19 +  1 x_4518_20 +  1 x_4518_21 +  1 x_4518_22 +  1 x_4518_23 +  1 x_4518_24 +  1 x_4518_25 +  1 x_4518_26 +  1 x_4518_27 +  1 x_4518_28 +  1 x_4518_29 +  1 x_4518_30 +  1 x_4518_31 +  1 x_4518_32 +  1 x_4518_33 +  5.0 x_4518_34 +  1 x_4518_37 +  1 x_4518_38 +  1 x_4518_39 +  1 x_4518_40 +  1 x_4518_41 +  1 x_4518_42 - path_4518 = 0
mprob_4644:  1 x_4644_0 +  1 x_4644_1 +  1 x_4644_2 +  1 x_4644_3 +  1 x_4644_4 +  1 x_4644_5 +  1 x_4644_6 +  1 x_4644_7 +  1 x_4644_8 +  1 x_4644_9 +  131.0 x_4644_10 +  16.0 x_4644_11 +  5.0 x_4644_12 +  1 x_4644_13 +  1 x_4644_14 +  16.0 x_4644_15 +  1 x_4644_16 +  5.0 x_4644_17 +  1 x_4644_18 +  131.0 x_4644_19 +  1 x_4644_20 +  1 x_4644_21 +  1 x_4644_22 +  1 x_4644_23 +  1 x_4644_24 +  1 x_4644_25 +  1 x_4644_26 +  1 x_4644_27 +  1 x_4644_28 +  1 x_4644_29 +  1 x_4644_30 +  1 x_4644_31 +  1 x_4644_32 +  1 x_4644_33 +  5.0 x_4644_34 +  1 x_4644_37 +  1 x_4644_38 +  1 x_4644_39 +  1 x_4644_40 +  1 x_4644_41 +  1 x_4644_42 - path_4644 = 0
mprob_3840:  1 x_3840_0 +  1 x_3840_1 +  1 x_3840_2 +  1 x_3840_3 +  1 x_3840_4 +  1 x_3840_5 +  1 x_3840_6 +  1 x_3840_7 +  1 x_3840_8 +  1 x_3840_9 +  131.0 x_3840_10 +  16.0 x_3840_11 +  5.0 x_3840_12 +  1 x_3840_13 +  1 x_3840_14 +  16.0 x_3840_15 +  1 x_3840_16 +  5.0 x_3840_17 +  1 x_3840_18 +  131.0 x_3840_19 +  1 x_3840_20 +  1 x_3840_21 +  1 x_3840_22 +  1 x_3840_23 +  1 x_3840_24 +  1 x_3840_25 +  1 x_3840_26 +  1 x_3840_27 +  1 x_3840_28 +  1 x_3840_29 +  1 x_3840_30 +  1 x_3840_31 +  1 x_3840_32 +  1 x_3840_33 +  5.0 x_3840_34 +  1 x_3840_37 +  1 x_3840_38 +  1 x_3840_39 +  1 x_3840_40 +  1 x_3840_41 +  1 x_3840_42 - path_3840 = 0
mprob_2413:  1 x_2413_0 +  1 x_2413_1 +  1 x_2413_2 +  1 x_2413_3 +  1 x_2413_4 +  1 x_2413_5 +  1 x_2413_6 +  1 x_2413_7 +  1 x_2413_8 +  1 x_2413_9 +  131.0 x_2413_10 +  16.0 x_2413_11 +  5.0 x_2413_12 +  1 x_2413_13 +  1 x_2413_14 +  16.0 x_2413_15 +  1 x_2413_16 +  5.0 x_2413_17 +  1 x_2413_18 +  131.0 x_2413_19 +  1 x_2413_20 +  1 x_2413_21 +  1 x_2413_22 +  1 x_2413_23 +  1 x_2413_24 +  1 x_2413_25 +  1 x_2413_26 +  1 x_2413_27 +  1 x_2413_28 +  1 x_2413_29 +  1 x_2413_30 +  1 x_2413_31 +  1 x_2413_32 +  1 x_2413_33 +  5.0 x_2413_34 +  1 x_2413_37 +  1 x_2413_38 +  1 x_2413_39 +  1 x_2413_40 +  1 x_2413_41 +  1 x_2413_42 - path_2413 = 0
mprob_3664:  1 x_3664_0 +  1 x_3664_1 +  1 x_3664_2 +  1 x_3664_3 +  1 x_3664_4 +  1 x_3664_5 +  1 x_3664_6 +  1 x_3664_7 +  1 x_3664_8 +  1 x_3664_9 +  131.0 x_3664_10 +  16.0 x_3664_11 +  5.0 x_3664_12 +  1 x_3664_13 +  1 x_3664_14 +  16.0 x_3664_15 +  1 x_3664_16 +  5.0 x_3664_17 +  1 x_3664_18 +  131.0 x_3664_19 +  1 x_3664_20 +  1 x_3664_21 +  1 x_3664_22 +  1 x_3664_23 +  1 x_3664_24 +  1 x_3664_25 +  1 x_3664_26 +  1 x_3664_27 +  1 x_3664_28 +  1 x_3664_29 +  1 x_3664_30 +  1 x_3664_31 +  1 x_3664_32 +  1 x_3664_33 +  5.0 x_3664_34 +  1 x_3664_37 +  1 x_3664_38 +  1 x_3664_39 +  1 x_3664_40 +  1 x_3664_41 +  1 x_3664_42 - path_3664 = 0
mprob_4774:  1 x_4774_0 +  1 x_4774_1 +  1 x_4774_2 +  1 x_4774_3 +  1 x_4774_4 +  1 x_4774_5 +  1 x_4774_6 +  1 x_4774_7 +  1 x_4774_8 +  1 x_4774_9 +  131.0 x_4774_10 +  16.0 x_4774_11 +  5.0 x_4774_12 +  1 x_4774_13 +  1 x_4774_14 +  16.0 x_4774_15 +  1 x_4774_16 +  5.0 x_4774_17 +  1 x_4774_18 +  131.0 x_4774_19 +  1 x_4774_20 +  1 x_4774_21 +  1 x_4774_22 +  1 x_4774_23 +  1 x_4774_24 +  1 x_4774_25 +  1 x_4774_26 +  1 x_4774_27 +  1 x_4774_28 +  1 x_4774_29 +  1 x_4774_30 +  1 x_4774_31 +  1 x_4774_32 +  1 x_4774_33 +  5.0 x_4774_34 +  1 x_4774_37 +  1 x_4774_38 +  1 x_4774_39 +  1 x_4774_40 +  1 x_4774_41 +  1 x_4774_42 - path_4774 = 0
mprob_3759:  1 x_3759_0 +  1 x_3759_1 +  1 x_3759_2 +  1 x_3759_3 +  1 x_3759_4 +  1 x_3759_5 +  1 x_3759_6 +  1 x_3759_7 +  1 x_3759_8 +  1 x_3759_9 +  131.0 x_3759_10 +  16.0 x_3759_11 +  5.0 x_3759_12 +  1 x_3759_13 +  1 x_3759_14 +  16.0 x_3759_15 +  1 x_3759_16 +  5.0 x_3759_17 +  1 x_3759_18 +  131.0 x_3759_19 +  1 x_3759_20 +  1 x_3759_21 +  1 x_3759_22 +  1 x_3759_23 +  1 x_3759_24 +  1 x_3759_25 +  1 x_3759_26 +  1 x_3759_27 +  1 x_3759_28 +  1 x_3759_29 +  1 x_3759_30 +  1 x_3759_31 +  1 x_3759_32 +  1 x_3759_33 +  5.0 x_3759_34 +  1 x_3759_37 +  1 x_3759_38 +  1 x_3759_39 +  1 x_3759_40 +  1 x_3759_41 +  1 x_3759_42 - path_3759 = 0
mprob_3968:  1 x_3968_0 +  1 x_3968_1 +  1 x_3968_2 +  1 x_3968_3 +  1 x_3968_4 +  1 x_3968_5 +  1 x_3968_6 +  1 x_3968_7 +  1 x_3968_8 +  1 x_3968_9 +  131.0 x_3968_10 +  16.0 x_3968_11 +  5.0 x_3968_12 +  1 x_3968_13 +  1 x_3968_14 +  16.0 x_3968_15 +  1 x_3968_16 +  5.0 x_3968_17 +  1 x_3968_18 +  131.0 x_3968_19 +  1 x_3968_20 +  1 x_3968_21 +  1 x_3968_22 +  1 x_3968_23 +  1 x_3968_24 +  1 x_3968_25 +  1 x_3968_26 +  1 x_3968_27 +  1 x_3968_28 +  1 x_3968_29 +  1 x_3968_30 +  1 x_3968_31 +  1 x_3968_32 +  1 x_3968_33 +  5.0 x_3968_34 +  1 x_3968_37 +  1 x_3968_38 +  1 x_3968_39 +  1 x_3968_40 +  1 x_3968_41 +  1 x_3968_42 - path_3968 = 0
mprob_4270:  1 x_4270_0 +  1 x_4270_1 +  1 x_4270_2 +  1 x_4270_3 +  1 x_4270_4 +  1 x_4270_5 +  1 x_4270_6 +  1 x_4270_7 +  1 x_4270_8 +  1 x_4270_9 +  131.0 x_4270_10 +  16.0 x_4270_11 +  5.0 x_4270_12 +  1 x_4270_13 +  1 x_4270_14 +  16.0 x_4270_15 +  1 x_4270_16 +  5.0 x_4270_17 +  1 x_4270_18 +  131.0 x_4270_19 +  1 x_4270_20 +  1 x_4270_21 +  1 x_4270_22 +  1 x_4270_23 +  1 x_4270_24 +  1 x_4270_25 +  1 x_4270_26 +  1 x_4270_27 +  1 x_4270_28 +  1 x_4270_29 +  1 x_4270_30 +  1 x_4270_31 +  1 x_4270_32 +  1 x_4270_33 +  5.0 x_4270_34 +  1 x_4270_37 +  1 x_4270_38 +  1 x_4270_39 +  1 x_4270_40 +  1 x_4270_41 +  1 x_4270_42 - path_4270 = 0
mprob_4129:  1 x_4129_0 +  1 x_4129_1 +  1 x_4129_2 +  1 x_4129_3 +  1 x_4129_4 +  1 x_4129_5 +  1 x_4129_6 +  1 x_4129_7 +  1 x_4129_8 +  1 x_4129_9 +  131.0 x_4129_10 +  16.0 x_4129_11 +  5.0 x_4129_12 +  1 x_4129_13 +  1 x_4129_14 +  16.0 x_4129_15 +  1 x_4129_16 +  5.0 x_4129_17 +  1 x_4129_18 +  131.0 x_4129_19 +  1 x_4129_20 +  1 x_4129_21 +  1 x_4129_22 +  1 x_4129_23 +  1 x_4129_24 +  1 x_4129_25 +  1 x_4129_26 +  1 x_4129_27 +  1 x_4129_28 +  1 x_4129_29 +  1 x_4129_30 +  1 x_4129_31 +  1 x_4129_32 +  1 x_4129_33 +  5.0 x_4129_34 +  1 x_4129_37 +  1 x_4129_38 +  1 x_4129_39 +  1 x_4129_40 +  1 x_4129_41 +  1 x_4129_42 - path_4129 = 0
mprob_4671:  1 x_4671_0 +  1 x_4671_1 +  1 x_4671_2 +  1 x_4671_3 +  1 x_4671_4 +  1 x_4671_5 +  1 x_4671_6 +  1 x_4671_7 +  1 x_4671_8 +  1 x_4671_9 +  131.0 x_4671_10 +  16.0 x_4671_11 +  5.0 x_4671_12 +  1 x_4671_13 +  1 x_4671_14 +  16.0 x_4671_15 +  1 x_4671_16 +  5.0 x_4671_17 +  1 x_4671_18 +  131.0 x_4671_19 +  1 x_4671_20 +  1 x_4671_21 +  1 x_4671_22 +  1 x_4671_23 +  1 x_4671_24 +  1 x_4671_25 +  1 x_4671_26 +  1 x_4671_27 +  1 x_4671_28 +  1 x_4671_29 +  1 x_4671_30 +  1 x_4671_31 +  1 x_4671_32 +  1 x_4671_33 +  5.0 x_4671_34 +  1 x_4671_37 +  1 x_4671_38 +  1 x_4671_39 +  1 x_4671_40 +  1 x_4671_41 +  1 x_4671_42 - path_4671 = 0
mprob_4152:  1 x_4152_0 +  1 x_4152_1 +  1 x_4152_2 +  1 x_4152_3 +  1 x_4152_4 +  1 x_4152_5 +  1 x_4152_6 +  1 x_4152_7 +  1 x_4152_8 +  1 x_4152_9 +  131.0 x_4152_10 +  16.0 x_4152_11 +  5.0 x_4152_12 +  1 x_4152_13 +  1 x_4152_14 +  16.0 x_4152_15 +  1 x_4152_16 +  5.0 x_4152_17 +  1 x_4152_18 +  131.0 x_4152_19 +  1 x_4152_20 +  1 x_4152_21 +  1 x_4152_22 +  1 x_4152_23 +  1 x_4152_24 +  1 x_4152_25 +  1 x_4152_26 +  1 x_4152_27 +  1 x_4152_28 +  1 x_4152_29 +  1 x_4152_30 +  1 x_4152_31 +  1 x_4152_32 +  1 x_4152_33 +  5.0 x_4152_34 +  1 x_4152_37 +  1 x_4152_38 +  1 x_4152_39 +  1 x_4152_40 +  1 x_4152_41 +  1 x_4152_42 - path_4152 = 0
mprob_4379:  1 x_4379_0 +  1 x_4379_1 +  1 x_4379_2 +  1 x_4379_3 +  1 x_4379_4 +  1 x_4379_5 +  1 x_4379_6 +  1 x_4379_7 +  1 x_4379_8 +  1 x_4379_9 +  131.0 x_4379_10 +  16.0 x_4379_11 +  5.0 x_4379_12 +  1 x_4379_13 +  1 x_4379_14 +  16.0 x_4379_15 +  1 x_4379_16 +  5.0 x_4379_17 +  1 x_4379_18 +  131.0 x_4379_19 +  1 x_4379_20 +  1 x_4379_21 +  1 x_4379_22 +  1 x_4379_23 +  1 x_4379_24 +  1 x_4379_25 +  1 x_4379_26 +  1 x_4379_27 +  1 x_4379_28 +  1 x_4379_29 +  1 x_4379_30 +  1 x_4379_31 +  1 x_4379_32 +  1 x_4379_33 +  5.0 x_4379_34 +  1 x_4379_37 +  1 x_4379_38 +  1 x_4379_39 +  1 x_4379_40 +  1 x_4379_41 +  1 x_4379_42 - path_4379 = 0
mprob_4812:  1 x_4812_0 +  1 x_4812_1 +  1 x_4812_2 +  1 x_4812_3 +  1 x_4812_4 +  1 x_4812_5 +  1 x_4812_6 +  1 x_4812_7 +  1 x_4812_8 +  1 x_4812_9 +  131.0 x_4812_10 +  16.0 x_4812_11 +  5.0 x_4812_12 +  1 x_4812_13 +  1 x_4812_14 +  16.0 x_4812_15 +  1 x_4812_16 +  5.0 x_4812_17 +  1 x_4812_18 +  131.0 x_4812_19 +  1 x_4812_20 +  1 x_4812_21 +  1 x_4812_22 +  1 x_4812_23 +  1 x_4812_24 +  1 x_4812_25 +  1 x_4812_26 +  1 x_4812_27 +  1 x_4812_28 +  1 x_4812_29 +  1 x_4812_30 +  1 x_4812_31 +  1 x_4812_32 +  1 x_4812_33 +  5.0 x_4812_34 +  1 x_4812_37 +  1 x_4812_38 +  1 x_4812_39 +  1 x_4812_40 +  1 x_4812_41 +  1 x_4812_42 - path_4812 = 0
mprob_4513:  1 x_4513_0 +  1 x_4513_1 +  1 x_4513_2 +  1 x_4513_3 +  1 x_4513_4 +  1 x_4513_5 +  1 x_4513_6 +  1 x_4513_7 +  1 x_4513_8 +  1 x_4513_9 +  131.0 x_4513_10 +  16.0 x_4513_11 +  5.0 x_4513_12 +  1 x_4513_13 +  1 x_4513_14 +  16.0 x_4513_15 +  1 x_4513_16 +  5.0 x_4513_17 +  1 x_4513_18 +  131.0 x_4513_19 +  1 x_4513_20 +  1 x_4513_21 +  1 x_4513_22 +  1 x_4513_23 +  1 x_4513_24 +  1 x_4513_25 +  1 x_4513_26 +  1 x_4513_27 +  1 x_4513_28 +  1 x_4513_29 +  1 x_4513_30 +  1 x_4513_31 +  1 x_4513_32 +  1 x_4513_33 +  5.0 x_4513_34 +  1 x_4513_37 +  1 x_4513_38 +  1 x_4513_39 +  1 x_4513_40 +  1 x_4513_41 +  1 x_4513_42 - path_4513 = 0
mprob_4584:  1 x_4584_0 +  1 x_4584_1 +  1 x_4584_2 +  1 x_4584_3 +  1 x_4584_4 +  1 x_4584_5 +  1 x_4584_6 +  1 x_4584_7 +  1 x_4584_8 +  1 x_4584_9 +  131.0 x_4584_10 +  16.0 x_4584_11 +  5.0 x_4584_12 +  1 x_4584_13 +  1 x_4584_14 +  16.0 x_4584_15 +  1 x_4584_16 +  5.0 x_4584_17 +  1 x_4584_18 +  131.0 x_4584_19 +  1 x_4584_20 +  1 x_4584_21 +  1 x_4584_22 +  1 x_4584_23 +  1 x_4584_24 +  1 x_4584_25 +  1 x_4584_26 +  1 x_4584_27 +  1 x_4584_28 +  1 x_4584_29 +  1 x_4584_30 +  1 x_4584_31 +  1 x_4584_32 +  1 x_4584_33 +  5.0 x_4584_34 +  1 x_4584_37 +  1 x_4584_38 +  1 x_4584_39 +  1 x_4584_40 +  1 x_4584_41 +  1 x_4584_42 - path_4584 = 0
mprob_4585:  1 x_4585_0 +  1 x_4585_1 +  1 x_4585_2 +  1 x_4585_3 +  1 x_4585_4 +  1 x_4585_5 +  1 x_4585_6 +  1 x_4585_7 +  1 x_4585_8 +  1 x_4585_9 +  131.0 x_4585_10 +  16.0 x_4585_11 +  5.0 x_4585_12 +  1 x_4585_13 +  1 x_4585_14 +  16.0 x_4585_15 +  1 x_4585_16 +  5.0 x_4585_17 +  1 x_4585_18 +  131.0 x_4585_19 +  1 x_4585_20 +  1 x_4585_21 +  1 x_4585_22 +  1 x_4585_23 +  1 x_4585_24 +  1 x_4585_25 +  1 x_4585_26 +  1 x_4585_27 +  1 x_4585_28 +  1 x_4585_29 +  1 x_4585_30 +  1 x_4585_31 +  1 x_4585_32 +  1 x_4585_33 +  5.0 x_4585_34 +  1 x_4585_37 +  1 x_4585_38 +  1 x_4585_39 +  1 x_4585_40 +  1 x_4585_41 +  1 x_4585_42 - path_4585 = 0
mprob_4212:  1 x_4212_0 +  1 x_4212_1 +  1 x_4212_2 +  1 x_4212_3 +  1 x_4212_4 +  1 x_4212_5 +  1 x_4212_6 +  1 x_4212_7 +  1 x_4212_8 +  1 x_4212_9 +  131.0 x_4212_10 +  16.0 x_4212_11 +  5.0 x_4212_12 +  1 x_4212_13 +  1 x_4212_14 +  16.0 x_4212_15 +  1 x_4212_16 +  5.0 x_4212_17 +  1 x_4212_18 +  131.0 x_4212_19 +  1 x_4212_20 +  1 x_4212_21 +  1 x_4212_22 +  1 x_4212_23 +  1 x_4212_24 +  1 x_4212_25 +  1 x_4212_26 +  1 x_4212_27 +  1 x_4212_28 +  1 x_4212_29 +  1 x_4212_30 +  1 x_4212_31 +  1 x_4212_32 +  1 x_4212_33 +  5.0 x_4212_34 +  1 x_4212_37 +  1 x_4212_38 +  1 x_4212_39 +  1 x_4212_40 +  1 x_4212_41 +  1 x_4212_42 - path_4212 = 0
mprob_4272:  1 x_4272_0 +  1 x_4272_1 +  1 x_4272_2 +  1 x_4272_3 +  1 x_4272_4 +  1 x_4272_5 +  1 x_4272_6 +  1 x_4272_7 +  1 x_4272_8 +  1 x_4272_9 +  131.0 x_4272_10 +  16.0 x_4272_11 +  5.0 x_4272_12 +  1 x_4272_13 +  1 x_4272_14 +  16.0 x_4272_15 +  1 x_4272_16 +  5.0 x_4272_17 +  1 x_4272_18 +  131.0 x_4272_19 +  1 x_4272_20 +  1 x_4272_21 +  1 x_4272_22 +  1 x_4272_23 +  1 x_4272_24 +  1 x_4272_25 +  1 x_4272_26 +  1 x_4272_27 +  1 x_4272_28 +  1 x_4272_29 +  1 x_4272_30 +  1 x_4272_31 +  1 x_4272_32 +  1 x_4272_33 +  5.0 x_4272_34 +  1 x_4272_37 +  1 x_4272_38 +  1 x_4272_39 +  1 x_4272_40 +  1 x_4272_41 +  1 x_4272_42 - path_4272 = 0
mprob_4144:  1 x_4144_0 +  1 x_4144_1 +  1 x_4144_2 +  1 x_4144_3 +  1 x_4144_4 +  1 x_4144_5 +  1 x_4144_6 +  1 x_4144_7 +  1 x_4144_8 +  1 x_4144_9 +  131.0 x_4144_10 +  16.0 x_4144_11 +  5.0 x_4144_12 +  1 x_4144_13 +  1 x_4144_14 +  16.0 x_4144_15 +  1 x_4144_16 +  5.0 x_4144_17 +  1 x_4144_18 +  131.0 x_4144_19 +  1 x_4144_20 +  1 x_4144_21 +  1 x_4144_22 +  1 x_4144_23 +  1 x_4144_24 +  1 x_4144_25 +  1 x_4144_26 +  1 x_4144_27 +  1 x_4144_28 +  1 x_4144_29 +  1 x_4144_30 +  1 x_4144_31 +  1 x_4144_32 +  1 x_4144_33 +  5.0 x_4144_34 +  1 x_4144_37 +  1 x_4144_38 +  1 x_4144_39 +  1 x_4144_40 +  1 x_4144_41 +  1 x_4144_42 - path_4144 = 0
mprob_3572:  1 x_3572_0 +  1 x_3572_1 +  1 x_3572_2 +  1 x_3572_3 +  1 x_3572_4 +  1 x_3572_5 +  1 x_3572_6 +  1 x_3572_7 +  1 x_3572_8 +  1 x_3572_9 +  131.0 x_3572_10 +  16.0 x_3572_11 +  5.0 x_3572_12 +  1 x_3572_13 +  1 x_3572_14 +  16.0 x_3572_15 +  1 x_3572_16 +  5.0 x_3572_17 +  1 x_3572_18 +  131.0 x_3572_19 +  1 x_3572_20 +  1 x_3572_21 +  1 x_3572_22 +  1 x_3572_23 +  1 x_3572_24 +  1 x_3572_25 +  1 x_3572_26 +  1 x_3572_27 +  1 x_3572_28 +  1 x_3572_29 +  1 x_3572_30 +  1 x_3572_31 +  1 x_3572_32 +  1 x_3572_33 +  5.0 x_3572_34 +  1 x_3572_37 +  1 x_3572_38 +  1 x_3572_39 +  1 x_3572_40 +  1 x_3572_41 +  1 x_3572_42 - path_3572 = 0
mprob_4818:  1 x_4818_0 +  1 x_4818_1 +  1 x_4818_2 +  1 x_4818_3 +  1 x_4818_4 +  1 x_4818_5 +  1 x_4818_6 +  1 x_4818_7 +  1 x_4818_8 +  1 x_4818_9 +  131.0 x_4818_10 +  16.0 x_4818_11 +  5.0 x_4818_12 +  1 x_4818_13 +  1 x_4818_14 +  16.0 x_4818_15 +  1 x_4818_16 +  5.0 x_4818_17 +  1 x_4818_18 +  131.0 x_4818_19 +  1 x_4818_20 +  1 x_4818_21 +  1 x_4818_22 +  1 x_4818_23 +  1 x_4818_24 +  1 x_4818_25 +  1 x_4818_26 +  1 x_4818_27 +  1 x_4818_28 +  1 x_4818_29 +  1 x_4818_30 +  1 x_4818_31 +  1 x_4818_32 +  1 x_4818_33 +  5.0 x_4818_34 +  1 x_4818_37 +  1 x_4818_38 +  1 x_4818_39 +  1 x_4818_40 +  1 x_4818_41 +  1 x_4818_42 - path_4818 = 0
mprob_4659:  1 x_4659_0 +  1 x_4659_1 +  1 x_4659_2 +  1 x_4659_3 +  1 x_4659_4 +  1 x_4659_5 +  1 x_4659_6 +  1 x_4659_7 +  1 x_4659_8 +  1 x_4659_9 +  131.0 x_4659_10 +  16.0 x_4659_11 +  5.0 x_4659_12 +  1 x_4659_13 +  1 x_4659_14 +  16.0 x_4659_15 +  1 x_4659_16 +  5.0 x_4659_17 +  1 x_4659_18 +  131.0 x_4659_19 +  1 x_4659_20 +  1 x_4659_21 +  1 x_4659_22 +  1 x_4659_23 +  1 x_4659_24 +  1 x_4659_25 +  1 x_4659_26 +  1 x_4659_27 +  1 x_4659_28 +  1 x_4659_29 +  1 x_4659_30 +  1 x_4659_31 +  1 x_4659_32 +  1 x_4659_33 +  5.0 x_4659_34 +  1 x_4659_37 +  1 x_4659_38 +  1 x_4659_39 +  1 x_4659_40 +  1 x_4659_41 +  1 x_4659_42 - path_4659 = 0
mprob_3253:  1 x_3253_0 +  1 x_3253_1 +  1 x_3253_2 +  1 x_3253_3 +  1 x_3253_4 +  1 x_3253_5 +  1 x_3253_6 +  1 x_3253_7 +  1 x_3253_8 +  1 x_3253_9 +  131.0 x_3253_10 +  16.0 x_3253_11 +  5.0 x_3253_12 +  1 x_3253_13 +  1 x_3253_14 +  16.0 x_3253_15 +  1 x_3253_16 +  5.0 x_3253_17 +  1 x_3253_18 +  131.0 x_3253_19 +  1 x_3253_20 +  1 x_3253_21 +  1 x_3253_22 +  1 x_3253_23 +  1 x_3253_24 +  1 x_3253_25 +  1 x_3253_26 +  1 x_3253_27 +  1 x_3253_28 +  1 x_3253_29 +  1 x_3253_30 +  1 x_3253_31 +  1 x_3253_32 +  1 x_3253_33 +  5.0 x_3253_34 +  1 x_3253_37 +  1 x_3253_38 +  1 x_3253_39 +  1 x_3253_40 +  1 x_3253_41 +  1 x_3253_42 - path_3253 = 0
mprob_4352:  1 x_4352_0 +  1 x_4352_1 +  1 x_4352_2 +  1 x_4352_3 +  1 x_4352_4 +  1 x_4352_5 +  1 x_4352_6 +  1 x_4352_7 +  1 x_4352_8 +  1 x_4352_9 +  131.0 x_4352_10 +  16.0 x_4352_11 +  5.0 x_4352_12 +  1 x_4352_13 +  1 x_4352_14 +  16.0 x_4352_15 +  1 x_4352_16 +  5.0 x_4352_17 +  1 x_4352_18 +  131.0 x_4352_19 +  1 x_4352_20 +  1 x_4352_21 +  1 x_4352_22 +  1 x_4352_23 +  1 x_4352_24 +  1 x_4352_25 +  1 x_4352_26 +  1 x_4352_27 +  1 x_4352_28 +  1 x_4352_29 +  1 x_4352_30 +  1 x_4352_31 +  1 x_4352_32 +  1 x_4352_33 +  5.0 x_4352_34 +  1 x_4352_37 +  1 x_4352_38 +  1 x_4352_39 +  1 x_4352_40 +  1 x_4352_41 +  1 x_4352_42 - path_4352 = 0
mprob_3350:  1 x_3350_0 +  1 x_3350_1 +  1 x_3350_2 +  1 x_3350_3 +  1 x_3350_4 +  1 x_3350_5 +  1 x_3350_6 +  1 x_3350_7 +  1 x_3350_8 +  1 x_3350_9 +  131.0 x_3350_10 +  16.0 x_3350_11 +  5.0 x_3350_12 +  1 x_3350_13 +  1 x_3350_14 +  16.0 x_3350_15 +  1 x_3350_16 +  5.0 x_3350_17 +  1 x_3350_18 +  131.0 x_3350_19 +  1 x_3350_20 +  1 x_3350_21 +  1 x_3350_22 +  1 x_3350_23 +  1 x_3350_24 +  1 x_3350_25 +  1 x_3350_26 +  1 x_3350_27 +  1 x_3350_28 +  1 x_3350_29 +  1 x_3350_30 +  1 x_3350_31 +  1 x_3350_32 +  1 x_3350_33 +  5.0 x_3350_34 +  1 x_3350_37 +  1 x_3350_38 +  1 x_3350_39 +  1 x_3350_40 +  1 x_3350_41 +  1 x_3350_42 - path_3350 = 0
mprob_4741:  1 x_4741_0 +  1 x_4741_1 +  1 x_4741_2 +  1 x_4741_3 +  1 x_4741_4 +  1 x_4741_5 +  1 x_4741_6 +  1 x_4741_7 +  1 x_4741_8 +  1 x_4741_9 +  131.0 x_4741_10 +  16.0 x_4741_11 +  5.0 x_4741_12 +  1 x_4741_13 +  1 x_4741_14 +  16.0 x_4741_15 +  1 x_4741_16 +  5.0 x_4741_17 +  1 x_4741_18 +  131.0 x_4741_19 +  1 x_4741_20 +  1 x_4741_21 +  1 x_4741_22 +  1 x_4741_23 +  1 x_4741_24 +  1 x_4741_25 +  1 x_4741_26 +  1 x_4741_27 +  1 x_4741_28 +  1 x_4741_29 +  1 x_4741_30 +  1 x_4741_31 +  1 x_4741_32 +  1 x_4741_33 +  5.0 x_4741_34 +  1 x_4741_37 +  1 x_4741_38 +  1 x_4741_39 +  1 x_4741_40 +  1 x_4741_41 +  1 x_4741_42 - path_4741 = 0
mprob_4455:  1 x_4455_0 +  1 x_4455_1 +  1 x_4455_2 +  1 x_4455_3 +  1 x_4455_4 +  1 x_4455_5 +  1 x_4455_6 +  1 x_4455_7 +  1 x_4455_8 +  1 x_4455_9 +  131.0 x_4455_10 +  16.0 x_4455_11 +  5.0 x_4455_12 +  1 x_4455_13 +  1 x_4455_14 +  16.0 x_4455_15 +  1 x_4455_16 +  5.0 x_4455_17 +  1 x_4455_18 +  131.0 x_4455_19 +  1 x_4455_20 +  1 x_4455_21 +  1 x_4455_22 +  1 x_4455_23 +  1 x_4455_24 +  1 x_4455_25 +  1 x_4455_26 +  1 x_4455_27 +  1 x_4455_28 +  1 x_4455_29 +  1 x_4455_30 +  1 x_4455_31 +  1 x_4455_32 +  1 x_4455_33 +  5.0 x_4455_34 +  1 x_4455_37 +  1 x_4455_38 +  1 x_4455_39 +  1 x_4455_40 +  1 x_4455_41 +  1 x_4455_42 - path_4455 = 0
mprob_4328:  1 x_4328_0 +  1 x_4328_1 +  1 x_4328_2 +  1 x_4328_3 +  1 x_4328_4 +  1 x_4328_5 +  1 x_4328_6 +  1 x_4328_7 +  1 x_4328_8 +  1 x_4328_9 +  131.0 x_4328_10 +  16.0 x_4328_11 +  5.0 x_4328_12 +  1 x_4328_13 +  1 x_4328_14 +  16.0 x_4328_15 +  1 x_4328_16 +  5.0 x_4328_17 +  1 x_4328_18 +  131.0 x_4328_19 +  1 x_4328_20 +  1 x_4328_21 +  1 x_4328_22 +  1 x_4328_23 +  1 x_4328_24 +  1 x_4328_25 +  1 x_4328_26 +  1 x_4328_27 +  1 x_4328_28 +  1 x_4328_29 +  1 x_4328_30 +  1 x_4328_31 +  1 x_4328_32 +  1 x_4328_33 +  5.0 x_4328_34 +  1 x_4328_37 +  1 x_4328_38 +  1 x_4328_39 +  1 x_4328_40 +  1 x_4328_41 +  1 x_4328_42 - path_4328 = 0
mrestored_time: 10000 restored_dc_4688_Bismarck + 10000 restored_dc_4688_Birmingham + 10000 restored_dc_4688_Salt_Lake_City + 8075 restored_dc_4805_Bismarck + 8075 restored_dc_4805_Birmingham + 8075 restored_dc_4805_Salt_Lake_City + 7475 restored_dc_4824_Bismarck + 7475 restored_dc_4824_Birmingham + 7475 restored_dc_4824_Salt_Lake_City + 6230 restored_dc_4527_Bismarck + 6230 restored_dc_4527_Birmingham + 6230 restored_dc_4527_Salt_Lake_City + 5805 restored_dc_4123_Bismarck + 5805 restored_dc_4123_Birmingham + 5805 restored_dc_4123_Salt_Lake_City + 5672 restored_dc_3470_Bismarck + 5672 restored_dc_3470_Birmingham + 5672 restored_dc_3470_Salt_Lake_City + 5170 restored_dc_4000_Bismarck + 5170 restored_dc_4000_Birmingham + 5170 restored_dc_4000_Salt_Lake_City + 4659 restored_dc_4870_Bismarck + 4659 restored_dc_4870_Birmingham + 4659 restored_dc_4870_Salt_Lake_City + 4539 restored_dc_4867_Bismarck + 4539 restored_dc_4867_Birmingham + 4539 restored_dc_4867_Salt_Lake_City + 4403 restored_dc_4256_Bismarck + 4403 restored_dc_4256_Birmingham + 4403 restored_dc_4256_Salt_Lake_City + 4359 restored_dc_4789_Bismarck + 4359 restored_dc_4789_Birmingham + 4359 restored_dc_4789_Salt_Lake_City + 3953 restored_dc_4026_Bismarck + 3953 restored_dc_4026_Birmingham + 3953 restored_dc_4026_Salt_Lake_City + 3926 restored_dc_4639_Bismarck + 3926 restored_dc_4639_Birmingham + 3926 restored_dc_4639_Salt_Lake_City + 3668 restored_dc_4598_Bismarck + 3668 restored_dc_4598_Birmingham + 3668 restored_dc_4598_Salt_Lake_City + 3658 restored_dc_4772_Bismarck + 3658 restored_dc_4772_Birmingham + 3658 restored_dc_4772_Salt_Lake_City + 3409 restored_dc_4781_Bismarck + 3409 restored_dc_4781_Birmingham + 3409 restored_dc_4781_Salt_Lake_City + 3330 restored_dc_4624_Bismarck + 3330 restored_dc_4624_Birmingham + 3330 restored_dc_4624_Salt_Lake_City + 3304 restored_dc_4877_Bismarck + 3304 restored_dc_4877_Birmingham + 3304 restored_dc_4877_Salt_Lake_City + 3301 restored_dc_4255_Bismarck + 3301 restored_dc_4255_Birmingham + 3301 restored_dc_4255_Salt_Lake_City + 3220 restored_dc_4631_Bismarck + 3220 restored_dc_4631_Birmingham + 3220 restored_dc_4631_Salt_Lake_City + 3188 restored_dc_3740_Bismarck + 3188 restored_dc_3740_Birmingham + 3188 restored_dc_3740_Salt_Lake_City + 3153 restored_dc_4637_Bismarck + 3153 restored_dc_4637_Birmingham + 3153 restored_dc_4637_Salt_Lake_City + 2717 restored_dc_3691_Bismarck + 2717 restored_dc_3691_Birmingham + 2717 restored_dc_3691_Salt_Lake_City + 2525 restored_dc_4709_Bismarck + 2525 restored_dc_4709_Birmingham + 2525 restored_dc_4709_Salt_Lake_City + 2472 restored_dc_4758_Bismarck + 2472 restored_dc_4758_Birmingham + 2472 restored_dc_4758_Salt_Lake_City + 2461 restored_dc_4548_Bismarck + 2461 restored_dc_4548_Birmingham + 2461 restored_dc_4548_Salt_Lake_City + 2460 restored_dc_4423_Bismarck + 2460 restored_dc_4423_Birmingham + 2460 restored_dc_4423_Salt_Lake_City + 2288 restored_dc_4331_Bismarck + 2288 restored_dc_4331_Birmingham + 2288 restored_dc_4331_Salt_Lake_City + 2210 restored_dc_4744_Bismarck + 2210 restored_dc_4744_Birmingham + 2210 restored_dc_4744_Salt_Lake_City + 2167 restored_dc_4210_Bismarck + 2167 restored_dc_4210_Birmingham + 2167 restored_dc_4210_Salt_Lake_City + 2163 restored_dc_505_Bismarck + 2163 restored_dc_505_Birmingham + 2163 restored_dc_505_Salt_Lake_City + 2159 restored_dc_3161_Bismarck + 2159 restored_dc_3161_Birmingham + 2159 restored_dc_3161_Salt_Lake_City + 2145 restored_dc_4359_Bismarck + 2145 restored_dc_4359_Birmingham + 2145 restored_dc_4359_Salt_Lake_City + 2131 restored_dc_4488_Bismarck + 2131 restored_dc_4488_Birmingham + 2131 restored_dc_4488_Salt_Lake_City + 2056 restored_dc_4463_Bismarck + 2056 restored_dc_4463_Birmingham + 2056 restored_dc_4463_Salt_Lake_City + 1981 restored_dc_4651_Bismarck + 1981 restored_dc_4651_Birmingham + 1981 restored_dc_4651_Salt_Lake_City + 1823 restored_dc_4771_Bismarck + 1823 restored_dc_4771_Birmingham + 1823 restored_dc_4771_Salt_Lake_City + 1762 restored_dc_4847_Bismarck + 1762 restored_dc_4847_Birmingham + 1762 restored_dc_4847_Salt_Lake_City + 1755 restored_dc_4734_Bismarck + 1755 restored_dc_4734_Birmingham + 1755 restored_dc_4734_Salt_Lake_City + 1720 restored_dc_4432_Bismarck + 1720 restored_dc_4432_Birmingham + 1720 restored_dc_4432_Salt_Lake_City + 1710 restored_dc_4621_Bismarck + 1710 restored_dc_4621_Birmingham + 1710 restored_dc_4621_Salt_Lake_City + 1609 restored_dc_4710_Bismarck + 1609 restored_dc_4710_Birmingham + 1609 restored_dc_4710_Salt_Lake_City + 1463 restored_dc_4865_Bismarck + 1463 restored_dc_4865_Birmingham + 1463 restored_dc_4865_Salt_Lake_City + 1453 restored_dc_4647_Bismarck + 1453 restored_dc_4647_Birmingham + 1453 restored_dc_4647_Salt_Lake_City + 1351 restored_dc_3381_Bismarck + 1351 restored_dc_3381_Birmingham + 1351 restored_dc_3381_Salt_Lake_City + 1259 restored_dc_3209_Bismarck + 1259 restored_dc_3209_Birmingham + 1259 restored_dc_3209_Salt_Lake_City + 1241 restored_dc_4453_Bismarck + 1241 restored_dc_4453_Birmingham + 1241 restored_dc_4453_Salt_Lake_City + 1190 restored_dc_2620_Bismarck + 1190 restored_dc_2620_Birmingham + 1190 restored_dc_2620_Salt_Lake_City + 1187 restored_dc_4130_Bismarck + 1187 restored_dc_4130_Birmingham + 1187 restored_dc_4130_Salt_Lake_City + 1179 restored_dc_4354_Bismarck + 1179 restored_dc_4354_Birmingham + 1179 restored_dc_4354_Salt_Lake_City + 1096 restored_dc_4433_Bismarck + 1096 restored_dc_4433_Birmingham + 1096 restored_dc_4433_Salt_Lake_City + 1041 restored_dc_4518_Bismarck + 1041 restored_dc_4518_Birmingham + 1041 restored_dc_4518_Salt_Lake_City + 1016 restored_dc_4644_Bismarck + 1016 restored_dc_4644_Birmingham + 1016 restored_dc_4644_Salt_Lake_City + 994 restored_dc_3840_Bismarck + 994 restored_dc_3840_Birmingham + 994 restored_dc_3840_Salt_Lake_City + 979 restored_dc_2413_Bismarck + 979 restored_dc_2413_Birmingham + 979 restored_dc_2413_Salt_Lake_City + 974 restored_dc_3664_Bismarck + 974 restored_dc_3664_Birmingham + 974 restored_dc_3664_Salt_Lake_City + 973 restored_dc_4774_Bismarck + 973 restored_dc_4774_Birmingham + 973 restored_dc_4774_Salt_Lake_City + 879 restored_dc_3759_Bismarck + 879 restored_dc_3759_Birmingham + 879 restored_dc_3759_Salt_Lake_City + 811 restored_dc_3968_Bismarck + 811 restored_dc_3968_Birmingham + 811 restored_dc_3968_Salt_Lake_City + 771 restored_dc_4270_Bismarck + 771 restored_dc_4270_Birmingham + 771 restored_dc_4270_Salt_Lake_City + 767 restored_dc_4129_Bismarck + 767 restored_dc_4129_Birmingham + 767 restored_dc_4129_Salt_Lake_City + 750 restored_dc_4671_Bismarck + 750 restored_dc_4671_Birmingham + 750 restored_dc_4671_Salt_Lake_City + 732 restored_dc_4152_Bismarck + 732 restored_dc_4152_Birmingham + 732 restored_dc_4152_Salt_Lake_City + 716 restored_dc_4379_Bismarck + 716 restored_dc_4379_Birmingham + 716 restored_dc_4379_Salt_Lake_City + 698 restored_dc_4812_Bismarck + 698 restored_dc_4812_Birmingham + 698 restored_dc_4812_Salt_Lake_City + 692 restored_dc_4513_Bismarck + 692 restored_dc_4513_Birmingham + 692 restored_dc_4513_Salt_Lake_City + 649 restored_dc_4584_Bismarck + 649 restored_dc_4584_Birmingham + 649 restored_dc_4584_Salt_Lake_City + 621 restored_dc_4585_Bismarck + 621 restored_dc_4585_Birmingham + 621 restored_dc_4585_Salt_Lake_City + 508 restored_dc_4212_Bismarck + 508 restored_dc_4212_Birmingham + 508 restored_dc_4212_Salt_Lake_City + 450 restored_dc_4272_Bismarck + 450 restored_dc_4272_Birmingham + 450 restored_dc_4272_Salt_Lake_City + 442 restored_dc_4144_Bismarck + 442 restored_dc_4144_Birmingham + 442 restored_dc_4144_Salt_Lake_City + 440 restored_dc_3572_Bismarck + 440 restored_dc_3572_Birmingham + 440 restored_dc_3572_Salt_Lake_City + 407 restored_dc_4818_Bismarck + 407 restored_dc_4818_Birmingham + 407 restored_dc_4818_Salt_Lake_City + 386 restored_dc_4659_Bismarck + 386 restored_dc_4659_Birmingham + 386 restored_dc_4659_Salt_Lake_City + 371 restored_dc_3253_Bismarck + 371 restored_dc_3253_Birmingham + 371 restored_dc_3253_Salt_Lake_City + 329 restored_dc_4352_Bismarck + 329 restored_dc_4352_Birmingham + 329 restored_dc_4352_Salt_Lake_City + 327 restored_dc_3350_Bismarck + 327 restored_dc_3350_Birmingham + 327 restored_dc_3350_Salt_Lake_City + 237 restored_dc_4741_Bismarck + 237 restored_dc_4741_Birmingham + 237 restored_dc_4741_Salt_Lake_City + 181 restored_dc_4455_Bismarck + 181 restored_dc_4455_Birmingham + 181 restored_dc_4455_Salt_Lake_City + 155 restored_dc_4328_Bismarck + 155 restored_dc_4328_Birmingham + 155 restored_dc_4328_Salt_Lake_City - restored_time = 0 
mtotaltime: unrestored_time + restored_time = 529578
imposed_1: relocation_4688 = 1
Binary 
restored_node_4688_Billings
restored_dc_4688_Bismarck
restored_node_4688_Ithaca
restored_node_4688_Charleston
restored_node_4688_Charlotte
restored_node_4688_Dallas
restored_node_4688_Denver
restored_node_4688_Columbus
restored_node_4688_El_Paso
restored_node_4688_Kansas_City
restored_node_4688_Las_Vegas
restored_node_4688_Los_Angeles
restored_node_4688_Louisville
restored_node_4688_New_York
restored_dc_4688_Birmingham
restored_node_4688_Portland
restored_dc_4688_Salt_Lake_City
restored_node_4688_San_Antonio
restored_node_4688_San_Francisco
restored_node_4688_Seattle
restored_node_4688_Tallahassee
restored_node_4688_Tucson
restored_node_4688_Washington_DC
x_4688_0
x_4688_1
x_4688_2
x_4688_3
x_4688_4
x_4688_5
x_4688_6
x_4688_7
x_4688_8
x_4688_9
x_4688_10
x_4688_11
x_4688_12
x_4688_13
x_4688_14
x_4688_15
x_4688_16
x_4688_17
x_4688_18
x_4688_19
x_4688_20
x_4688_21
x_4688_22
x_4688_23
x_4688_24
x_4688_25
x_4688_26
x_4688_27
x_4688_28
x_4688_29
x_4688_30
x_4688_31
x_4688_32
x_4688_33
x_4688_34
x_4688_37
x_4688_38
x_4688_39
x_4688_40
x_4688_41
x_4688_42
restored_4688
relocation_4688
restored_node_4805_Billings
restored_dc_4805_Bismarck
restored_node_4805_Ithaca
restored_node_4805_Charleston
restored_node_4805_Charlotte
restored_node_4805_Dallas
restored_node_4805_Denver
restored_node_4805_Columbus
restored_node_4805_El_Paso
restored_node_4805_Kansas_City
restored_node_4805_Las_Vegas
restored_node_4805_Los_Angeles
restored_node_4805_Louisville
restored_node_4805_New_Orleans
restored_node_4805_New_York
restored_dc_4805_Birmingham
restored_node_4805_Portland
restored_dc_4805_Salt_Lake_City
restored_node_4805_San_Francisco
restored_node_4805_Seattle
restored_node_4805_Tallahassee
restored_node_4805_Tucson
restored_node_4805_Washington_DC
x_4805_0
x_4805_1
x_4805_2
x_4805_3
x_4805_4
x_4805_5
x_4805_6
x_4805_7
x_4805_8
x_4805_9
x_4805_10
x_4805_11
x_4805_12
x_4805_13
x_4805_14
x_4805_15
x_4805_16
x_4805_17
x_4805_18
x_4805_19
x_4805_20
x_4805_21
x_4805_22
x_4805_23
x_4805_24
x_4805_25
x_4805_26
x_4805_27
x_4805_28
x_4805_29
x_4805_30
x_4805_31
x_4805_32
x_4805_33
x_4805_34
x_4805_37
x_4805_38
x_4805_39
x_4805_40
x_4805_41
x_4805_42
restored_4805
relocation_4805
restored_node_4824_Billings
restored_dc_4824_Bismarck
restored_node_4824_Ithaca
restored_node_4824_Charleston
restored_node_4824_Charlotte
restored_node_4824_Dallas
restored_node_4824_Denver
restored_node_4824_Columbus
restored_node_4824_El_Paso
restored_node_4824_Kansas_City
restored_node_4824_Las_Vegas
restored_node_4824_Los_Angeles
restored_node_4824_Louisville
restored_node_4824_New_Orleans
restored_node_4824_New_York
restored_dc_4824_Birmingham
restored_node_4824_Portland
restored_dc_4824_Salt_Lake_City
restored_node_4824_San_Francisco
restored_node_4824_Seattle
restored_node_4824_Tallahassee
restored_node_4824_Tucson
restored_node_4824_Washington_DC
x_4824_0
x_4824_1
x_4824_2
x_4824_3
x_4824_4
x_4824_5
x_4824_6
x_4824_7
x_4824_8
x_4824_9
x_4824_10
x_4824_11
x_4824_12
x_4824_13
x_4824_14
x_4824_15
x_4824_16
x_4824_17
x_4824_18
x_4824_19
x_4824_20
x_4824_21
x_4824_22
x_4824_23
x_4824_24
x_4824_25
x_4824_26
x_4824_27
x_4824_28
x_4824_29
x_4824_30
x_4824_31
x_4824_32
x_4824_33
x_4824_34
x_4824_37
x_4824_38
x_4824_39
x_4824_40
x_4824_41
x_4824_42
restored_4824
relocation_4824
restored_node_4527_Billings
restored_dc_4527_Bismarck
restored_node_4527_Ithaca
restored_node_4527_Charleston
restored_node_4527_Charlotte
restored_node_4527_Dallas
restored_node_4527_Denver
restored_node_4527_Columbus
restored_node_4527_El_Paso
restored_node_4527_Kansas_City
restored_node_4527_Las_Vegas
restored_node_4527_Los_Angeles
restored_node_4527_Louisville
restored_node_4527_New_Orleans
restored_node_4527_New_York
restored_dc_4527_Birmingham
restored_node_4527_Portland
restored_dc_4527_Salt_Lake_City
restored_node_4527_San_Francisco
restored_node_4527_Seattle
restored_node_4527_Tallahassee
restored_node_4527_Tucson
restored_node_4527_Washington_DC
x_4527_0
x_4527_1
x_4527_2
x_4527_3
x_4527_4
x_4527_5
x_4527_6
x_4527_7
x_4527_8
x_4527_9
x_4527_10
x_4527_11
x_4527_12
x_4527_13
x_4527_14
x_4527_15
x_4527_16
x_4527_17
x_4527_18
x_4527_19
x_4527_20
x_4527_21
x_4527_22
x_4527_23
x_4527_24
x_4527_25
x_4527_26
x_4527_27
x_4527_28
x_4527_29
x_4527_30
x_4527_31
x_4527_32
x_4527_33
x_4527_34
x_4527_37
x_4527_38
x_4527_39
x_4527_40
x_4527_41
x_4527_42
restored_4527
relocation_4527
restored_node_4123_Billings
restored_dc_4123_Bismarck
restored_node_4123_Ithaca
restored_node_4123_Charleston
restored_node_4123_Charlotte
restored_node_4123_Dallas
restored_node_4123_Denver
restored_node_4123_Columbus
restored_node_4123_El_Paso
restored_node_4123_Kansas_City
restored_node_4123_Las_Vegas
restored_node_4123_Los_Angeles
restored_node_4123_Louisville
restored_node_4123_New_Orleans
restored_node_4123_New_York
restored_dc_4123_Birmingham
restored_node_4123_Portland
restored_dc_4123_Salt_Lake_City
restored_node_4123_San_Francisco
restored_node_4123_Seattle
restored_node_4123_Tallahassee
restored_node_4123_Tucson
restored_node_4123_Washington_DC
x_4123_0
x_4123_1
x_4123_2
x_4123_3
x_4123_4
x_4123_5
x_4123_6
x_4123_7
x_4123_8
x_4123_9
x_4123_10
x_4123_11
x_4123_12
x_4123_13
x_4123_14
x_4123_15
x_4123_16
x_4123_17
x_4123_18
x_4123_19
x_4123_20
x_4123_21
x_4123_22
x_4123_23
x_4123_24
x_4123_25
x_4123_26
x_4123_27
x_4123_28
x_4123_29
x_4123_30
x_4123_31
x_4123_32
x_4123_33
x_4123_34
x_4123_37
x_4123_38
x_4123_39
x_4123_40
x_4123_41
x_4123_42
restored_4123
relocation_4123
restored_node_3470_Billings
restored_dc_3470_Bismarck
restored_node_3470_Ithaca
restored_node_3470_Charleston
restored_node_3470_Charlotte
restored_node_3470_Dallas
restored_node_3470_Denver
restored_node_3470_Columbus
restored_node_3470_El_Paso
restored_node_3470_Kansas_City
restored_node_3470_Las_Vegas
restored_node_3470_Los_Angeles
restored_node_3470_Louisville
restored_node_3470_New_Orleans
restored_node_3470_New_York
restored_dc_3470_Birmingham
restored_node_3470_Portland
restored_dc_3470_Salt_Lake_City
restored_node_3470_San_Francisco
restored_node_3470_Seattle
restored_node_3470_Tallahassee
restored_node_3470_Tucson
restored_node_3470_Washington_DC
x_3470_0
x_3470_1
x_3470_2
x_3470_3
x_3470_4
x_3470_5
x_3470_6
x_3470_7
x_3470_8
x_3470_9
x_3470_10
x_3470_11
x_3470_12
x_3470_13
x_3470_14
x_3470_15
x_3470_16
x_3470_17
x_3470_18
x_3470_19
x_3470_20
x_3470_21
x_3470_22
x_3470_23
x_3470_24
x_3470_25
x_3470_26
x_3470_27
x_3470_28
x_3470_29
x_3470_30
x_3470_31
x_3470_32
x_3470_33
x_3470_34
x_3470_37
x_3470_38
x_3470_39
x_3470_40
x_3470_41
x_3470_42
restored_3470
relocation_3470
restored_node_4000_Billings
restored_dc_4000_Bismarck
restored_node_4000_Ithaca
restored_node_4000_Charleston
restored_node_4000_Charlotte
restored_node_4000_Dallas
restored_node_4000_Denver
restored_node_4000_Columbus
restored_node_4000_El_Paso
restored_node_4000_Kansas_City
restored_node_4000_Las_Vegas
restored_node_4000_Los_Angeles
restored_node_4000_Louisville
restored_node_4000_New_Orleans
restored_node_4000_New_York
restored_dc_4000_Birmingham
restored_node_4000_Portland
restored_dc_4000_Salt_Lake_City
restored_node_4000_San_Antonio
restored_node_4000_San_Francisco
restored_node_4000_Seattle
restored_node_4000_Tucson
restored_node_4000_Washington_DC
x_4000_0
x_4000_1
x_4000_2
x_4000_3
x_4000_4
x_4000_5
x_4000_6
x_4000_7
x_4000_8
x_4000_9
x_4000_10
x_4000_11
x_4000_12
x_4000_13
x_4000_14
x_4000_15
x_4000_16
x_4000_17
x_4000_18
x_4000_19
x_4000_20
x_4000_21
x_4000_22
x_4000_23
x_4000_24
x_4000_25
x_4000_26
x_4000_27
x_4000_28
x_4000_29
x_4000_30
x_4000_31
x_4000_32
x_4000_33
x_4000_34
x_4000_37
x_4000_38
x_4000_39
x_4000_40
x_4000_41
x_4000_42
restored_4000
relocation_4000
restored_node_4870_Billings
restored_dc_4870_Bismarck
restored_node_4870_Ithaca
restored_node_4870_Charleston
restored_node_4870_Charlotte
restored_node_4870_Dallas
restored_node_4870_Denver
restored_node_4870_Columbus
restored_node_4870_El_Paso
restored_node_4870_Kansas_City
restored_node_4870_Las_Vegas
restored_node_4870_Los_Angeles
restored_node_4870_Louisville
restored_node_4870_New_Orleans
restored_node_4870_New_York
restored_dc_4870_Birmingham
restored_node_4870_Portland
restored_dc_4870_Salt_Lake_City
restored_node_4870_San_Francisco
restored_node_4870_Seattle
restored_node_4870_Tallahassee
restored_node_4870_Tucson
restored_node_4870_Washington_DC
x_4870_0
x_4870_1
x_4870_2
x_4870_3
x_4870_4
x_4870_5
x_4870_6
x_4870_7
x_4870_8
x_4870_9
x_4870_10
x_4870_11
x_4870_12
x_4870_13
x_4870_14
x_4870_15
x_4870_16
x_4870_17
x_4870_18
x_4870_19
x_4870_20
x_4870_21
x_4870_22
x_4870_23
x_4870_24
x_4870_25
x_4870_26
x_4870_27
x_4870_28
x_4870_29
x_4870_30
x_4870_31
x_4870_32
x_4870_33
x_4870_34
x_4870_37
x_4870_38
x_4870_39
x_4870_40
x_4870_41
x_4870_42
restored_4870
relocation_4870
restored_node_4867_Billings
restored_dc_4867_Bismarck
restored_node_4867_Ithaca
restored_node_4867_Charleston
restored_node_4867_Charlotte
restored_node_4867_Dallas
restored_node_4867_Denver
restored_node_4867_Columbus
restored_node_4867_El_Paso
restored_node_4867_Kansas_City
restored_node_4867_Las_Vegas
restored_node_4867_Los_Angeles
restored_node_4867_Louisville
restored_node_4867_New_York
restored_dc_4867_Birmingham
restored_node_4867_Portland
restored_dc_4867_Salt_Lake_City
restored_node_4867_San_Antonio
restored_node_4867_San_Francisco
restored_node_4867_Seattle
restored_node_4867_Tallahassee
restored_node_4867_Tucson
restored_node_4867_Washington_DC
x_4867_0
x_4867_1
x_4867_2
x_4867_3
x_4867_4
x_4867_5
x_4867_6
x_4867_7
x_4867_8
x_4867_9
x_4867_10
x_4867_11
x_4867_12
x_4867_13
x_4867_14
x_4867_15
x_4867_16
x_4867_17
x_4867_18
x_4867_19
x_4867_20
x_4867_21
x_4867_22
x_4867_23
x_4867_24
x_4867_25
x_4867_26
x_4867_27
x_4867_28
x_4867_29
x_4867_30
x_4867_31
x_4867_32
x_4867_33
x_4867_34
x_4867_37
x_4867_38
x_4867_39
x_4867_40
x_4867_41
x_4867_42
restored_4867
relocation_4867
restored_node_4256_Billings
restored_dc_4256_Bismarck
restored_node_4256_Ithaca
restored_node_4256_Charleston
restored_node_4256_Charlotte
restored_node_4256_Dallas
restored_node_4256_Denver
restored_node_4256_Columbus
restored_node_4256_El_Paso
restored_node_4256_Kansas_City
restored_node_4256_Las_Vegas
restored_node_4256_Los_Angeles
restored_node_4256_Louisville
restored_node_4256_New_Orleans
restored_node_4256_New_York
restored_dc_4256_Birmingham
restored_node_4256_Portland
restored_dc_4256_Salt_Lake_City
restored_node_4256_San_Antonio
restored_node_4256_San_Francisco
restored_node_4256_Seattle
restored_node_4256_Tucson
restored_node_4256_Washington_DC
x_4256_0
x_4256_1
x_4256_2
x_4256_3
x_4256_4
x_4256_5
x_4256_6
x_4256_7
x_4256_8
x_4256_9
x_4256_10
x_4256_11
x_4256_12
x_4256_13
x_4256_14
x_4256_15
x_4256_16
x_4256_17
x_4256_18
x_4256_19
x_4256_20
x_4256_21
x_4256_22
x_4256_23
x_4256_24
x_4256_25
x_4256_26
x_4256_27
x_4256_28
x_4256_29
x_4256_30
x_4256_31
x_4256_32
x_4256_33
x_4256_34
x_4256_37
x_4256_38
x_4256_39
x_4256_40
x_4256_41
x_4256_42
restored_4256
relocation_4256
restored_node_4789_Billings
restored_dc_4789_Bismarck
restored_node_4789_Ithaca
restored_node_4789_Charleston
restored_node_4789_Charlotte
restored_node_4789_Dallas
restored_node_4789_Denver
restored_node_4789_Columbus
restored_node_4789_El_Paso
restored_node_4789_Kansas_City
restored_node_4789_Las_Vegas
restored_node_4789_Los_Angeles
restored_node_4789_Louisville
restored_node_4789_New_Orleans
restored_node_4789_New_York
restored_dc_4789_Birmingham
restored_node_4789_Portland
restored_dc_4789_Salt_Lake_City
restored_node_4789_San_Francisco
restored_node_4789_Seattle
restored_node_4789_Tallahassee
restored_node_4789_Tucson
restored_node_4789_Washington_DC
x_4789_0
x_4789_1
x_4789_2
x_4789_3
x_4789_4
x_4789_5
x_4789_6
x_4789_7
x_4789_8
x_4789_9
x_4789_10
x_4789_11
x_4789_12
x_4789_13
x_4789_14
x_4789_15
x_4789_16
x_4789_17
x_4789_18
x_4789_19
x_4789_20
x_4789_21
x_4789_22
x_4789_23
x_4789_24
x_4789_25
x_4789_26
x_4789_27
x_4789_28
x_4789_29
x_4789_30
x_4789_31
x_4789_32
x_4789_33
x_4789_34
x_4789_37
x_4789_38
x_4789_39
x_4789_40
x_4789_41
x_4789_42
restored_4789
relocation_4789
restored_node_4026_Billings
restored_dc_4026_Bismarck
restored_node_4026_Ithaca
restored_node_4026_Charleston
restored_node_4026_Charlotte
restored_node_4026_Dallas
restored_node_4026_Denver
restored_node_4026_Columbus
restored_node_4026_El_Paso
restored_node_4026_Kansas_City
restored_node_4026_Las_Vegas
restored_node_4026_Los_Angeles
restored_node_4026_Louisville
restored_node_4026_New_York
restored_dc_4026_Birmingham
restored_node_4026_Portland
restored_dc_4026_Salt_Lake_City
restored_node_4026_San_Antonio
restored_node_4026_San_Francisco
restored_node_4026_Seattle
restored_node_4026_Tallahassee
restored_node_4026_Tucson
restored_node_4026_Washington_DC
x_4026_0
x_4026_1
x_4026_2
x_4026_3
x_4026_4
x_4026_5
x_4026_6
x_4026_7
x_4026_8
x_4026_9
x_4026_10
x_4026_11
x_4026_12
x_4026_13
x_4026_14
x_4026_15
x_4026_16
x_4026_17
x_4026_18
x_4026_19
x_4026_20
x_4026_21
x_4026_22
x_4026_23
x_4026_24
x_4026_25
x_4026_26
x_4026_27
x_4026_28
x_4026_29
x_4026_30
x_4026_31
x_4026_32
x_4026_33
x_4026_34
x_4026_37
x_4026_38
x_4026_39
x_4026_40
x_4026_41
x_4026_42
restored_4026
relocation_4026
restored_node_4639_Billings
restored_dc_4639_Bismarck
restored_node_4639_Ithaca
restored_node_4639_Charleston
restored_node_4639_Charlotte
restored_node_4639_Dallas
restored_node_4639_Denver
restored_node_4639_Columbus
restored_node_4639_El_Paso
restored_node_4639_Kansas_City
restored_node_4639_Las_Vegas
restored_node_4639_Los_Angeles
restored_node_4639_Louisville
restored_node_4639_New_Orleans
restored_node_4639_New_York
restored_dc_4639_Birmingham
restored_node_4639_Portland
restored_dc_4639_Salt_Lake_City
restored_node_4639_San_Francisco
restored_node_4639_Seattle
restored_node_4639_Tallahassee
restored_node_4639_Tucson
restored_node_4639_Washington_DC
x_4639_0
x_4639_1
x_4639_2
x_4639_3
x_4639_4
x_4639_5
x_4639_6
x_4639_7
x_4639_8
x_4639_9
x_4639_10
x_4639_11
x_4639_12
x_4639_13
x_4639_14
x_4639_15
x_4639_16
x_4639_17
x_4639_18
x_4639_19
x_4639_20
x_4639_21
x_4639_22
x_4639_23
x_4639_24
x_4639_25
x_4639_26
x_4639_27
x_4639_28
x_4639_29
x_4639_30
x_4639_31
x_4639_32
x_4639_33
x_4639_34
x_4639_37
x_4639_38
x_4639_39
x_4639_40
x_4639_41
x_4639_42
restored_4639
relocation_4639
restored_node_4598_Billings
restored_dc_4598_Bismarck
restored_node_4598_Ithaca
restored_node_4598_Charleston
restored_node_4598_Charlotte
restored_node_4598_Dallas
restored_node_4598_Denver
restored_node_4598_Columbus
restored_node_4598_El_Paso
restored_node_4598_Kansas_City
restored_node_4598_Las_Vegas
restored_node_4598_Los_Angeles
restored_node_4598_Louisville
restored_node_4598_New_Orleans
restored_node_4598_New_York
restored_dc_4598_Birmingham
restored_node_4598_Portland
restored_dc_4598_Salt_Lake_City
restored_node_4598_San_Antonio
restored_node_4598_San_Francisco
restored_node_4598_Seattle
restored_node_4598_Tucson
restored_node_4598_Washington_DC
x_4598_0
x_4598_1
x_4598_2
x_4598_3
x_4598_4
x_4598_5
x_4598_6
x_4598_7
x_4598_8
x_4598_9
x_4598_10
x_4598_11
x_4598_12
x_4598_13
x_4598_14
x_4598_15
x_4598_16
x_4598_17
x_4598_18
x_4598_19
x_4598_20
x_4598_21
x_4598_22
x_4598_23
x_4598_24
x_4598_25
x_4598_26
x_4598_27
x_4598_28
x_4598_29
x_4598_30
x_4598_31
x_4598_32
x_4598_33
x_4598_34
x_4598_37
x_4598_38
x_4598_39
x_4598_40
x_4598_41
x_4598_42
restored_4598
relocation_4598
restored_node_4772_Billings
restored_dc_4772_Bismarck
restored_node_4772_Ithaca
restored_node_4772_Charleston
restored_node_4772_Charlotte
restored_node_4772_Dallas
restored_node_4772_Denver
restored_node_4772_Columbus
restored_node_4772_El_Paso
restored_node_4772_Kansas_City
restored_node_4772_Las_Vegas
restored_node_4772_Los_Angeles
restored_node_4772_Louisville
restored_node_4772_New_Orleans
restored_node_4772_New_York
restored_dc_4772_Birmingham
restored_node_4772_Portland
restored_dc_4772_Salt_Lake_City
restored_node_4772_San_Antonio
restored_node_4772_San_Francisco
restored_node_4772_Seattle
restored_node_4772_Tucson
restored_node_4772_Washington_DC
x_4772_0
x_4772_1
x_4772_2
x_4772_3
x_4772_4
x_4772_5
x_4772_6
x_4772_7
x_4772_8
x_4772_9
x_4772_10
x_4772_11
x_4772_12
x_4772_13
x_4772_14
x_4772_15
x_4772_16
x_4772_17
x_4772_18
x_4772_19
x_4772_20
x_4772_21
x_4772_22
x_4772_23
x_4772_24
x_4772_25
x_4772_26
x_4772_27
x_4772_28
x_4772_29
x_4772_30
x_4772_31
x_4772_32
x_4772_33
x_4772_34
x_4772_37
x_4772_38
x_4772_39
x_4772_40
x_4772_41
x_4772_42
restored_4772
relocation_4772
restored_node_4781_Billings
restored_dc_4781_Bismarck
restored_node_4781_Ithaca
restored_node_4781_Charleston
restored_node_4781_Charlotte
restored_node_4781_Dallas
restored_node_4781_Denver
restored_node_4781_Columbus
restored_node_4781_El_Paso
restored_node_4781_Kansas_City
restored_node_4781_Las_Vegas
restored_node_4781_Los_Angeles
restored_node_4781_Louisville
restored_node_4781_New_York
restored_dc_4781_Birmingham
restored_node_4781_Portland
restored_dc_4781_Salt_Lake_City
restored_node_4781_San_Antonio
restored_node_4781_San_Francisco
restored_node_4781_Seattle
restored_node_4781_Tallahassee
restored_node_4781_Tucson
restored_node_4781_Washington_DC
x_4781_0
x_4781_1
x_4781_2
x_4781_3
x_4781_4
x_4781_5
x_4781_6
x_4781_7
x_4781_8
x_4781_9
x_4781_10
x_4781_11
x_4781_12
x_4781_13
x_4781_14
x_4781_15
x_4781_16
x_4781_17
x_4781_18
x_4781_19
x_4781_20
x_4781_21
x_4781_22
x_4781_23
x_4781_24
x_4781_25
x_4781_26
x_4781_27
x_4781_28
x_4781_29
x_4781_30
x_4781_31
x_4781_32
x_4781_33
x_4781_34
x_4781_37
x_4781_38
x_4781_39
x_4781_40
x_4781_41
x_4781_42
restored_4781
relocation_4781
restored_node_4624_Billings
restored_dc_4624_Bismarck
restored_node_4624_Ithaca
restored_node_4624_Charleston
restored_node_4624_Charlotte
restored_node_4624_Dallas
restored_node_4624_Denver
restored_node_4624_Columbus
restored_node_4624_El_Paso
restored_node_4624_Kansas_City
restored_node_4624_Las_Vegas
restored_node_4624_Los_Angeles
restored_node_4624_Louisville
restored_node_4624_New_Orleans
restored_node_4624_New_York
restored_dc_4624_Birmingham
restored_node_4624_Portland
restored_dc_4624_Salt_Lake_City
restored_node_4624_San_Antonio
restored_node_4624_San_Francisco
restored_node_4624_Seattle
restored_node_4624_Tucson
restored_node_4624_Washington_DC
x_4624_0
x_4624_1
x_4624_2
x_4624_3
x_4624_4
x_4624_5
x_4624_6
x_4624_7
x_4624_8
x_4624_9
x_4624_10
x_4624_11
x_4624_12
x_4624_13
x_4624_14
x_4624_15
x_4624_16
x_4624_17
x_4624_18
x_4624_19
x_4624_20
x_4624_21
x_4624_22
x_4624_23
x_4624_24
x_4624_25
x_4624_26
x_4624_27
x_4624_28
x_4624_29
x_4624_30
x_4624_31
x_4624_32
x_4624_33
x_4624_34
x_4624_37
x_4624_38
x_4624_39
x_4624_40
x_4624_41
x_4624_42
restored_4624
relocation_4624
restored_node_4877_Billings
restored_dc_4877_Bismarck
restored_node_4877_Ithaca
restored_node_4877_Charleston
restored_node_4877_Charlotte
restored_node_4877_Dallas
restored_node_4877_Denver
restored_node_4877_Columbus
restored_node_4877_El_Paso
restored_node_4877_Kansas_City
restored_node_4877_Las_Vegas
restored_node_4877_Los_Angeles
restored_node_4877_Louisville
restored_node_4877_New_Orleans
restored_node_4877_New_York
restored_dc_4877_Birmingham
restored_node_4877_Portland
restored_dc_4877_Salt_Lake_City
restored_node_4877_San_Francisco
restored_node_4877_Seattle
restored_node_4877_Tallahassee
restored_node_4877_Tucson
restored_node_4877_Washington_DC
x_4877_0
x_4877_1
x_4877_2
x_4877_3
x_4877_4
x_4877_5
x_4877_6
x_4877_7
x_4877_8
x_4877_9
x_4877_10
x_4877_11
x_4877_12
x_4877_13
x_4877_14
x_4877_15
x_4877_16
x_4877_17
x_4877_18
x_4877_19
x_4877_20
x_4877_21
x_4877_22
x_4877_23
x_4877_24
x_4877_25
x_4877_26
x_4877_27
x_4877_28
x_4877_29
x_4877_30
x_4877_31
x_4877_32
x_4877_33
x_4877_34
x_4877_37
x_4877_38
x_4877_39
x_4877_40
x_4877_41
x_4877_42
restored_4877
relocation_4877
restored_node_4255_Billings
restored_dc_4255_Bismarck
restored_node_4255_Ithaca
restored_node_4255_Charleston
restored_node_4255_Charlotte
restored_node_4255_Dallas
restored_node_4255_Denver
restored_node_4255_Columbus
restored_node_4255_El_Paso
restored_node_4255_Kansas_City
restored_node_4255_Las_Vegas
restored_node_4255_Los_Angeles
restored_node_4255_Louisville
restored_node_4255_New_Orleans
restored_node_4255_New_York
restored_dc_4255_Birmingham
restored_node_4255_Portland
restored_dc_4255_Salt_Lake_City
restored_node_4255_San_Francisco
restored_node_4255_Seattle
restored_node_4255_Tallahassee
restored_node_4255_Tucson
restored_node_4255_Washington_DC
x_4255_0
x_4255_1
x_4255_2
x_4255_3
x_4255_4
x_4255_5
x_4255_6
x_4255_7
x_4255_8
x_4255_9
x_4255_10
x_4255_11
x_4255_12
x_4255_13
x_4255_14
x_4255_15
x_4255_16
x_4255_17
x_4255_18
x_4255_19
x_4255_20
x_4255_21
x_4255_22
x_4255_23
x_4255_24
x_4255_25
x_4255_26
x_4255_27
x_4255_28
x_4255_29
x_4255_30
x_4255_31
x_4255_32
x_4255_33
x_4255_34
x_4255_37
x_4255_38
x_4255_39
x_4255_40
x_4255_41
x_4255_42
restored_4255
relocation_4255
restored_node_4631_Billings
restored_dc_4631_Bismarck
restored_node_4631_Ithaca
restored_node_4631_Charleston
restored_node_4631_Charlotte
restored_node_4631_Dallas
restored_node_4631_Denver
restored_node_4631_Columbus
restored_node_4631_El_Paso
restored_node_4631_Kansas_City
restored_node_4631_Las_Vegas
restored_node_4631_Los_Angeles
restored_node_4631_Louisville
restored_node_4631_New_Orleans
restored_node_4631_New_York
restored_dc_4631_Birmingham
restored_node_4631_Portland
restored_dc_4631_Salt_Lake_City
restored_node_4631_San_Antonio
restored_node_4631_San_Francisco
restored_node_4631_Seattle
restored_node_4631_Tucson
restored_node_4631_Washington_DC
x_4631_0
x_4631_1
x_4631_2
x_4631_3
x_4631_4
x_4631_5
x_4631_6
x_4631_7
x_4631_8
x_4631_9
x_4631_10
x_4631_11
x_4631_12
x_4631_13
x_4631_14
x_4631_15
x_4631_16
x_4631_17
x_4631_18
x_4631_19
x_4631_20
x_4631_21
x_4631_22
x_4631_23
x_4631_24
x_4631_25
x_4631_26
x_4631_27
x_4631_28
x_4631_29
x_4631_30
x_4631_31
x_4631_32
x_4631_33
x_4631_34
x_4631_37
x_4631_38
x_4631_39
x_4631_40
x_4631_41
x_4631_42
restored_4631
relocation_4631
restored_node_3740_Billings
restored_dc_3740_Bismarck
restored_node_3740_Ithaca
restored_node_3740_Charleston
restored_node_3740_Charlotte
restored_node_3740_Dallas
restored_node_3740_Denver
restored_node_3740_Columbus
restored_node_3740_El_Paso
restored_node_3740_Kansas_City
restored_node_3740_Las_Vegas
restored_node_3740_Los_Angeles
restored_node_3740_Louisville
restored_node_3740_New_York
restored_dc_3740_Birmingham
restored_node_3740_Portland
restored_dc_3740_Salt_Lake_City
restored_node_3740_San_Antonio
restored_node_3740_San_Francisco
restored_node_3740_Seattle
restored_node_3740_Tallahassee
restored_node_3740_Tucson
restored_node_3740_Washington_DC
x_3740_0
x_3740_1
x_3740_2
x_3740_3
x_3740_4
x_3740_5
x_3740_6
x_3740_7
x_3740_8
x_3740_9
x_3740_10
x_3740_11
x_3740_12
x_3740_13
x_3740_14
x_3740_15
x_3740_16
x_3740_17
x_3740_18
x_3740_19
x_3740_20
x_3740_21
x_3740_22
x_3740_23
x_3740_24
x_3740_25
x_3740_26
x_3740_27
x_3740_28
x_3740_29
x_3740_30
x_3740_31
x_3740_32
x_3740_33
x_3740_34
x_3740_37
x_3740_38
x_3740_39
x_3740_40
x_3740_41
x_3740_42
restored_3740
relocation_3740
restored_node_4637_Billings
restored_dc_4637_Bismarck
restored_node_4637_Ithaca
restored_node_4637_Charleston
restored_node_4637_Charlotte
restored_node_4637_Dallas
restored_node_4637_Denver
restored_node_4637_Columbus
restored_node_4637_El_Paso
restored_node_4637_Kansas_City
restored_node_4637_Las_Vegas
restored_node_4637_Los_Angeles
restored_node_4637_Louisville
restored_node_4637_New_Orleans
restored_node_4637_New_York
restored_dc_4637_Birmingham
restored_node_4637_Portland
restored_dc_4637_Salt_Lake_City
restored_node_4637_San_Antonio
restored_node_4637_San_Francisco
restored_node_4637_Seattle
restored_node_4637_Tucson
restored_node_4637_Washington_DC
x_4637_0
x_4637_1
x_4637_2
x_4637_3
x_4637_4
x_4637_5
x_4637_6
x_4637_7
x_4637_8
x_4637_9
x_4637_10
x_4637_11
x_4637_12
x_4637_13
x_4637_14
x_4637_15
x_4637_16
x_4637_17
x_4637_18
x_4637_19
x_4637_20
x_4637_21
x_4637_22
x_4637_23
x_4637_24
x_4637_25
x_4637_26
x_4637_27
x_4637_28
x_4637_29
x_4637_30
x_4637_31
x_4637_32
x_4637_33
x_4637_34
x_4637_37
x_4637_38
x_4637_39
x_4637_40
x_4637_41
x_4637_42
restored_4637
relocation_4637
restored_node_3691_Billings
restored_dc_3691_Bismarck
restored_node_3691_Ithaca
restored_node_3691_Charleston
restored_node_3691_Charlotte
restored_node_3691_Dallas
restored_node_3691_Denver
restored_node_3691_Columbus
restored_node_3691_El_Paso
restored_node_3691_Kansas_City
restored_node_3691_Las_Vegas
restored_node_3691_Los_Angeles
restored_node_3691_Louisville
restored_node_3691_New_Orleans
restored_node_3691_New_York
restored_dc_3691_Birmingham
restored_node_3691_Portland
restored_dc_3691_Salt_Lake_City
restored_node_3691_San_Antonio
restored_node_3691_San_Francisco
restored_node_3691_Seattle
restored_node_3691_Tucson
restored_node_3691_Washington_DC
x_3691_0
x_3691_1
x_3691_2
x_3691_3
x_3691_4
x_3691_5
x_3691_6
x_3691_7
x_3691_8
x_3691_9
x_3691_10
x_3691_11
x_3691_12
x_3691_13
x_3691_14
x_3691_15
x_3691_16
x_3691_17
x_3691_18
x_3691_19
x_3691_20
x_3691_21
x_3691_22
x_3691_23
x_3691_24
x_3691_25
x_3691_26
x_3691_27
x_3691_28
x_3691_29
x_3691_30
x_3691_31
x_3691_32
x_3691_33
x_3691_34
x_3691_37
x_3691_38
x_3691_39
x_3691_40
x_3691_41
x_3691_42
restored_3691
relocation_3691
restored_node_4709_Billings
restored_dc_4709_Bismarck
restored_node_4709_Ithaca
restored_node_4709_Charleston
restored_node_4709_Charlotte
restored_node_4709_Dallas
restored_node_4709_Denver
restored_node_4709_Columbus
restored_node_4709_El_Paso
restored_node_4709_Kansas_City
restored_node_4709_Las_Vegas
restored_node_4709_Los_Angeles
restored_node_4709_Louisville
restored_node_4709_New_York
restored_dc_4709_Birmingham
restored_node_4709_Portland
restored_dc_4709_Salt_Lake_City
restored_node_4709_San_Antonio
restored_node_4709_San_Francisco
restored_node_4709_Seattle
restored_node_4709_Tallahassee
restored_node_4709_Tucson
restored_node_4709_Washington_DC
x_4709_0
x_4709_1
x_4709_2
x_4709_3
x_4709_4
x_4709_5
x_4709_6
x_4709_7
x_4709_8
x_4709_9
x_4709_10
x_4709_11
x_4709_12
x_4709_13
x_4709_14
x_4709_15
x_4709_16
x_4709_17
x_4709_18
x_4709_19
x_4709_20
x_4709_21
x_4709_22
x_4709_23
x_4709_24
x_4709_25
x_4709_26
x_4709_27
x_4709_28
x_4709_29
x_4709_30
x_4709_31
x_4709_32
x_4709_33
x_4709_34
x_4709_37
x_4709_38
x_4709_39
x_4709_40
x_4709_41
x_4709_42
restored_4709
relocation_4709
restored_node_4758_Billings
restored_dc_4758_Bismarck
restored_node_4758_Ithaca
restored_node_4758_Charleston
restored_node_4758_Charlotte
restored_node_4758_Dallas
restored_node_4758_Denver
restored_node_4758_Columbus
restored_node_4758_El_Paso
restored_node_4758_Kansas_City
restored_node_4758_Las_Vegas
restored_node_4758_Los_Angeles
restored_node_4758_Louisville
restored_node_4758_New_York
restored_dc_4758_Birmingham
restored_node_4758_Portland
restored_dc_4758_Salt_Lake_City
restored_node_4758_San_Antonio
restored_node_4758_San_Francisco
restored_node_4758_Seattle
restored_node_4758_Tallahassee
restored_node_4758_Tucson
restored_node_4758_Washington_DC
x_4758_0
x_4758_1
x_4758_2
x_4758_3
x_4758_4
x_4758_5
x_4758_6
x_4758_7
x_4758_8
x_4758_9
x_4758_10
x_4758_11
x_4758_12
x_4758_13
x_4758_14
x_4758_15
x_4758_16
x_4758_17
x_4758_18
x_4758_19
x_4758_20
x_4758_21
x_4758_22
x_4758_23
x_4758_24
x_4758_25
x_4758_26
x_4758_27
x_4758_28
x_4758_29
x_4758_30
x_4758_31
x_4758_32
x_4758_33
x_4758_34
x_4758_37
x_4758_38
x_4758_39
x_4758_40
x_4758_41
x_4758_42
restored_4758
relocation_4758
restored_node_4548_Billings
restored_dc_4548_Bismarck
restored_node_4548_Ithaca
restored_node_4548_Charleston
restored_node_4548_Charlotte
restored_node_4548_Dallas
restored_node_4548_Denver
restored_node_4548_Columbus
restored_node_4548_El_Paso
restored_node_4548_Kansas_City
restored_node_4548_Las_Vegas
restored_node_4548_Los_Angeles
restored_node_4548_Louisville
restored_node_4548_New_York
restored_dc_4548_Birmingham
restored_node_4548_Portland
restored_dc_4548_Salt_Lake_City
restored_node_4548_San_Antonio
restored_node_4548_San_Francisco
restored_node_4548_Seattle
restored_node_4548_Tallahassee
restored_node_4548_Tucson
restored_node_4548_Washington_DC
x_4548_0
x_4548_1
x_4548_2
x_4548_3
x_4548_4
x_4548_5
x_4548_6
x_4548_7
x_4548_8
x_4548_9
x_4548_10
x_4548_11
x_4548_12
x_4548_13
x_4548_14
x_4548_15
x_4548_16
x_4548_17
x_4548_18
x_4548_19
x_4548_20
x_4548_21
x_4548_22
x_4548_23
x_4548_24
x_4548_25
x_4548_26
x_4548_27
x_4548_28
x_4548_29
x_4548_30
x_4548_31
x_4548_32
x_4548_33
x_4548_34
x_4548_37
x_4548_38
x_4548_39
x_4548_40
x_4548_41
x_4548_42
restored_4548
relocation_4548
restored_node_4423_Billings
restored_dc_4423_Bismarck
restored_node_4423_Ithaca
restored_node_4423_Charleston
restored_node_4423_Charlotte
restored_node_4423_Dallas
restored_node_4423_Denver
restored_node_4423_Columbus
restored_node_4423_El_Paso
restored_node_4423_Kansas_City
restored_node_4423_Las_Vegas
restored_node_4423_Los_Angeles
restored_node_4423_Louisville
restored_node_4423_New_York
restored_dc_4423_Birmingham
restored_node_4423_Portland
restored_dc_4423_Salt_Lake_City
restored_node_4423_San_Antonio
restored_node_4423_San_Francisco
restored_node_4423_Seattle
restored_node_4423_Tallahassee
restored_node_4423_Tucson
restored_node_4423_Washington_DC
x_4423_0
x_4423_1
x_4423_2
x_4423_3
x_4423_4
x_4423_5
x_4423_6
x_4423_7
x_4423_8
x_4423_9
x_4423_10
x_4423_11
x_4423_12
x_4423_13
x_4423_14
x_4423_15
x_4423_16
x_4423_17
x_4423_18
x_4423_19
x_4423_20
x_4423_21
x_4423_22
x_4423_23
x_4423_24
x_4423_25
x_4423_26
x_4423_27
x_4423_28
x_4423_29
x_4423_30
x_4423_31
x_4423_32
x_4423_33
x_4423_34
x_4423_37
x_4423_38
x_4423_39
x_4423_40
x_4423_41
x_4423_42
restored_4423
relocation_4423
restored_node_4331_Billings
restored_dc_4331_Bismarck
restored_node_4331_Ithaca
restored_node_4331_Charleston
restored_node_4331_Charlotte
restored_node_4331_Dallas
restored_node_4331_Denver
restored_node_4331_Columbus
restored_node_4331_El_Paso
restored_node_4331_Kansas_City
restored_node_4331_Las_Vegas
restored_node_4331_Los_Angeles
restored_node_4331_Louisville
restored_node_4331_New_York
restored_dc_4331_Birmingham
restored_node_4331_Portland
restored_dc_4331_Salt_Lake_City
restored_node_4331_San_Antonio
restored_node_4331_San_Francisco
restored_node_4331_Seattle
restored_node_4331_Tallahassee
restored_node_4331_Tucson
restored_node_4331_Washington_DC
x_4331_0
x_4331_1
x_4331_2
x_4331_3
x_4331_4
x_4331_5
x_4331_6
x_4331_7
x_4331_8
x_4331_9
x_4331_10
x_4331_11
x_4331_12
x_4331_13
x_4331_14
x_4331_15
x_4331_16
x_4331_17
x_4331_18
x_4331_19
x_4331_20
x_4331_21
x_4331_22
x_4331_23
x_4331_24
x_4331_25
x_4331_26
x_4331_27
x_4331_28
x_4331_29
x_4331_30
x_4331_31
x_4331_32
x_4331_33
x_4331_34
x_4331_37
x_4331_38
x_4331_39
x_4331_40
x_4331_41
x_4331_42
restored_4331
relocation_4331
restored_node_4744_Billings
restored_dc_4744_Bismarck
restored_node_4744_Ithaca
restored_node_4744_Charleston
restored_node_4744_Charlotte
restored_node_4744_Dallas
restored_node_4744_Denver
restored_node_4744_Columbus
restored_node_4744_El_Paso
restored_node_4744_Kansas_City
restored_node_4744_Las_Vegas
restored_node_4744_Los_Angeles
restored_node_4744_Louisville
restored_node_4744_New_Orleans
restored_node_4744_New_York
restored_dc_4744_Birmingham
restored_node_4744_Portland
restored_dc_4744_Salt_Lake_City
restored_node_4744_San_Francisco
restored_node_4744_Seattle
restored_node_4744_Tallahassee
restored_node_4744_Tucson
restored_node_4744_Washington_DC
x_4744_0
x_4744_1
x_4744_2
x_4744_3
x_4744_4
x_4744_5
x_4744_6
x_4744_7
x_4744_8
x_4744_9
x_4744_10
x_4744_11
x_4744_12
x_4744_13
x_4744_14
x_4744_15
x_4744_16
x_4744_17
x_4744_18
x_4744_19
x_4744_20
x_4744_21
x_4744_22
x_4744_23
x_4744_24
x_4744_25
x_4744_26
x_4744_27
x_4744_28
x_4744_29
x_4744_30
x_4744_31
x_4744_32
x_4744_33
x_4744_34
x_4744_37
x_4744_38
x_4744_39
x_4744_40
x_4744_41
x_4744_42
restored_4744
relocation_4744
restored_node_4210_Billings
restored_dc_4210_Bismarck
restored_node_4210_Ithaca
restored_node_4210_Charleston
restored_node_4210_Charlotte
restored_node_4210_Dallas
restored_node_4210_Denver
restored_node_4210_Columbus
restored_node_4210_El_Paso
restored_node_4210_Kansas_City
restored_node_4210_Las_Vegas
restored_node_4210_Los_Angeles
restored_node_4210_Louisville
restored_node_4210_New_Orleans
restored_node_4210_New_York
restored_dc_4210_Birmingham
restored_node_4210_Portland
restored_dc_4210_Salt_Lake_City
restored_node_4210_San_Francisco
restored_node_4210_Seattle
restored_node_4210_Tallahassee
restored_node_4210_Tucson
restored_node_4210_Washington_DC
x_4210_0
x_4210_1
x_4210_2
x_4210_3
x_4210_4
x_4210_5
x_4210_6
x_4210_7
x_4210_8
x_4210_9
x_4210_10
x_4210_11
x_4210_12
x_4210_13
x_4210_14
x_4210_15
x_4210_16
x_4210_17
x_4210_18
x_4210_19
x_4210_20
x_4210_21
x_4210_22
x_4210_23
x_4210_24
x_4210_25
x_4210_26
x_4210_27
x_4210_28
x_4210_29
x_4210_30
x_4210_31
x_4210_32
x_4210_33
x_4210_34
x_4210_37
x_4210_38
x_4210_39
x_4210_40
x_4210_41
x_4210_42
restored_4210
relocation_4210
restored_node_505_Billings
restored_dc_505_Bismarck
restored_node_505_Ithaca
restored_node_505_Charleston
restored_node_505_Charlotte
restored_node_505_Dallas
restored_node_505_Denver
restored_node_505_Columbus
restored_node_505_El_Paso
restored_node_505_Kansas_City
restored_node_505_Las_Vegas
restored_node_505_Los_Angeles
restored_node_505_Louisville
restored_node_505_New_Orleans
restored_node_505_New_York
restored_dc_505_Birmingham
restored_node_505_Portland
restored_dc_505_Salt_Lake_City
restored_node_505_San_Antonio
restored_node_505_San_Francisco
restored_node_505_Seattle
restored_node_505_Tucson
restored_node_505_Washington_DC
x_505_0
x_505_1
x_505_2
x_505_3
x_505_4
x_505_5
x_505_6
x_505_7
x_505_8
x_505_9
x_505_10
x_505_11
x_505_12
x_505_13
x_505_14
x_505_15
x_505_16
x_505_17
x_505_18
x_505_19
x_505_20
x_505_21
x_505_22
x_505_23
x_505_24
x_505_25
x_505_26
x_505_27
x_505_28
x_505_29
x_505_30
x_505_31
x_505_32
x_505_33
x_505_34
x_505_37
x_505_38
x_505_39
x_505_40
x_505_41
x_505_42
restored_505
relocation_505
restored_node_3161_Billings
restored_dc_3161_Bismarck
restored_node_3161_Ithaca
restored_node_3161_Charleston
restored_node_3161_Charlotte
restored_node_3161_Dallas
restored_node_3161_Denver
restored_node_3161_Columbus
restored_node_3161_El_Paso
restored_node_3161_Kansas_City
restored_node_3161_Las_Vegas
restored_node_3161_Los_Angeles
restored_node_3161_Louisville
restored_node_3161_New_Orleans
restored_node_3161_New_York
restored_dc_3161_Birmingham
restored_node_3161_Portland
restored_dc_3161_Salt_Lake_City
restored_node_3161_San_Antonio
restored_node_3161_San_Francisco
restored_node_3161_Seattle
restored_node_3161_Tucson
restored_node_3161_Washington_DC
x_3161_0
x_3161_1
x_3161_2
x_3161_3
x_3161_4
x_3161_5
x_3161_6
x_3161_7
x_3161_8
x_3161_9
x_3161_10
x_3161_11
x_3161_12
x_3161_13
x_3161_14
x_3161_15
x_3161_16
x_3161_17
x_3161_18
x_3161_19
x_3161_20
x_3161_21
x_3161_22
x_3161_23
x_3161_24
x_3161_25
x_3161_26
x_3161_27
x_3161_28
x_3161_29
x_3161_30
x_3161_31
x_3161_32
x_3161_33
x_3161_34
x_3161_37
x_3161_38
x_3161_39
x_3161_40
x_3161_41
x_3161_42
restored_3161
relocation_3161
restored_node_4359_Billings
restored_dc_4359_Bismarck
restored_node_4359_Ithaca
restored_node_4359_Charleston
restored_node_4359_Charlotte
restored_node_4359_Dallas
restored_node_4359_Denver
restored_node_4359_Columbus
restored_node_4359_El_Paso
restored_node_4359_Kansas_City
restored_node_4359_Las_Vegas
restored_node_4359_Los_Angeles
restored_node_4359_Louisville
restored_node_4359_New_Orleans
restored_node_4359_New_York
restored_dc_4359_Birmingham
restored_node_4359_Portland
restored_dc_4359_Salt_Lake_City
restored_node_4359_San_Antonio
restored_node_4359_San_Francisco
restored_node_4359_Seattle
restored_node_4359_Tucson
restored_node_4359_Washington_DC
x_4359_0
x_4359_1
x_4359_2
x_4359_3
x_4359_4
x_4359_5
x_4359_6
x_4359_7
x_4359_8
x_4359_9
x_4359_10
x_4359_11
x_4359_12
x_4359_13
x_4359_14
x_4359_15
x_4359_16
x_4359_17
x_4359_18
x_4359_19
x_4359_20
x_4359_21
x_4359_22
x_4359_23
x_4359_24
x_4359_25
x_4359_26
x_4359_27
x_4359_28
x_4359_29
x_4359_30
x_4359_31
x_4359_32
x_4359_33
x_4359_34
x_4359_37
x_4359_38
x_4359_39
x_4359_40
x_4359_41
x_4359_42
restored_4359
relocation_4359
restored_node_4488_Billings
restored_dc_4488_Bismarck
restored_node_4488_Ithaca
restored_node_4488_Charleston
restored_node_4488_Charlotte
restored_node_4488_Dallas
restored_node_4488_Denver
restored_node_4488_Columbus
restored_node_4488_El_Paso
restored_node_4488_Kansas_City
restored_node_4488_Las_Vegas
restored_node_4488_Los_Angeles
restored_node_4488_Louisville
restored_node_4488_New_Orleans
restored_node_4488_New_York
restored_dc_4488_Birmingham
restored_node_4488_Portland
restored_dc_4488_Salt_Lake_City
restored_node_4488_San_Francisco
restored_node_4488_Seattle
restored_node_4488_Tallahassee
restored_node_4488_Tucson
restored_node_4488_Washington_DC
x_4488_0
x_4488_1
x_4488_2
x_4488_3
x_4488_4
x_4488_5
x_4488_6
x_4488_7
x_4488_8
x_4488_9
x_4488_10
x_4488_11
x_4488_12
x_4488_13
x_4488_14
x_4488_15
x_4488_16
x_4488_17
x_4488_18
x_4488_19
x_4488_20
x_4488_21
x_4488_22
x_4488_23
x_4488_24
x_4488_25
x_4488_26
x_4488_27
x_4488_28
x_4488_29
x_4488_30
x_4488_31
x_4488_32
x_4488_33
x_4488_34
x_4488_37
x_4488_38
x_4488_39
x_4488_40
x_4488_41
x_4488_42
restored_4488
relocation_4488
restored_node_4463_Billings
restored_dc_4463_Bismarck
restored_node_4463_Ithaca
restored_node_4463_Charleston
restored_node_4463_Charlotte
restored_node_4463_Dallas
restored_node_4463_Denver
restored_node_4463_Columbus
restored_node_4463_El_Paso
restored_node_4463_Kansas_City
restored_node_4463_Las_Vegas
restored_node_4463_Los_Angeles
restored_node_4463_Louisville
restored_node_4463_New_Orleans
restored_node_4463_New_York
restored_dc_4463_Birmingham
restored_node_4463_Portland
restored_dc_4463_Salt_Lake_City
restored_node_4463_San_Francisco
restored_node_4463_Seattle
restored_node_4463_Tallahassee
restored_node_4463_Tucson
restored_node_4463_Washington_DC
x_4463_0
x_4463_1
x_4463_2
x_4463_3
x_4463_4
x_4463_5
x_4463_6
x_4463_7
x_4463_8
x_4463_9
x_4463_10
x_4463_11
x_4463_12
x_4463_13
x_4463_14
x_4463_15
x_4463_16
x_4463_17
x_4463_18
x_4463_19
x_4463_20
x_4463_21
x_4463_22
x_4463_23
x_4463_24
x_4463_25
x_4463_26
x_4463_27
x_4463_28
x_4463_29
x_4463_30
x_4463_31
x_4463_32
x_4463_33
x_4463_34
x_4463_37
x_4463_38
x_4463_39
x_4463_40
x_4463_41
x_4463_42
restored_4463
relocation_4463
restored_node_4651_Billings
restored_dc_4651_Bismarck
restored_node_4651_Ithaca
restored_node_4651_Charleston
restored_node_4651_Charlotte
restored_node_4651_Dallas
restored_node_4651_Denver
restored_node_4651_Columbus
restored_node_4651_El_Paso
restored_node_4651_Kansas_City
restored_node_4651_Las_Vegas
restored_node_4651_Los_Angeles
restored_node_4651_Louisville
restored_node_4651_New_York
restored_dc_4651_Birmingham
restored_node_4651_Portland
restored_dc_4651_Salt_Lake_City
restored_node_4651_San_Antonio
restored_node_4651_San_Francisco
restored_node_4651_Seattle
restored_node_4651_Tallahassee
restored_node_4651_Tucson
restored_node_4651_Washington_DC
x_4651_0
x_4651_1
x_4651_2
x_4651_3
x_4651_4
x_4651_5
x_4651_6
x_4651_7
x_4651_8
x_4651_9
x_4651_10
x_4651_11
x_4651_12
x_4651_13
x_4651_14
x_4651_15
x_4651_16
x_4651_17
x_4651_18
x_4651_19
x_4651_20
x_4651_21
x_4651_22
x_4651_23
x_4651_24
x_4651_25
x_4651_26
x_4651_27
x_4651_28
x_4651_29
x_4651_30
x_4651_31
x_4651_32
x_4651_33
x_4651_34
x_4651_37
x_4651_38
x_4651_39
x_4651_40
x_4651_41
x_4651_42
restored_4651
relocation_4651
restored_node_4771_Billings
restored_dc_4771_Bismarck
restored_node_4771_Ithaca
restored_node_4771_Charleston
restored_node_4771_Charlotte
restored_node_4771_Dallas
restored_node_4771_Denver
restored_node_4771_Columbus
restored_node_4771_El_Paso
restored_node_4771_Kansas_City
restored_node_4771_Las_Vegas
restored_node_4771_Los_Angeles
restored_node_4771_Louisville
restored_node_4771_New_Orleans
restored_node_4771_New_York
restored_dc_4771_Birmingham
restored_node_4771_Portland
restored_dc_4771_Salt_Lake_City
restored_node_4771_San_Antonio
restored_node_4771_San_Francisco
restored_node_4771_Seattle
restored_node_4771_Tucson
restored_node_4771_Washington_DC
x_4771_0
x_4771_1
x_4771_2
x_4771_3
x_4771_4
x_4771_5
x_4771_6
x_4771_7
x_4771_8
x_4771_9
x_4771_10
x_4771_11
x_4771_12
x_4771_13
x_4771_14
x_4771_15
x_4771_16
x_4771_17
x_4771_18
x_4771_19
x_4771_20
x_4771_21
x_4771_22
x_4771_23
x_4771_24
x_4771_25
x_4771_26
x_4771_27
x_4771_28
x_4771_29
x_4771_30
x_4771_31
x_4771_32
x_4771_33
x_4771_34
x_4771_37
x_4771_38
x_4771_39
x_4771_40
x_4771_41
x_4771_42
restored_4771
relocation_4771
restored_node_4847_Billings
restored_dc_4847_Bismarck
restored_node_4847_Ithaca
restored_node_4847_Charleston
restored_node_4847_Charlotte
restored_node_4847_Dallas
restored_node_4847_Denver
restored_node_4847_Columbus
restored_node_4847_El_Paso
restored_node_4847_Kansas_City
restored_node_4847_Las_Vegas
restored_node_4847_Los_Angeles
restored_node_4847_Louisville
restored_node_4847_New_York
restored_dc_4847_Birmingham
restored_node_4847_Portland
restored_dc_4847_Salt_Lake_City
restored_node_4847_San_Antonio
restored_node_4847_San_Francisco
restored_node_4847_Seattle
restored_node_4847_Tallahassee
restored_node_4847_Tucson
restored_node_4847_Washington_DC
x_4847_0
x_4847_1
x_4847_2
x_4847_3
x_4847_4
x_4847_5
x_4847_6
x_4847_7
x_4847_8
x_4847_9
x_4847_10
x_4847_11
x_4847_12
x_4847_13
x_4847_14
x_4847_15
x_4847_16
x_4847_17
x_4847_18
x_4847_19
x_4847_20
x_4847_21
x_4847_22
x_4847_23
x_4847_24
x_4847_25
x_4847_26
x_4847_27
x_4847_28
x_4847_29
x_4847_30
x_4847_31
x_4847_32
x_4847_33
x_4847_34
x_4847_37
x_4847_38
x_4847_39
x_4847_40
x_4847_41
x_4847_42
restored_4847
relocation_4847
restored_node_4734_Billings
restored_dc_4734_Bismarck
restored_node_4734_Ithaca
restored_node_4734_Charleston
restored_node_4734_Charlotte
restored_node_4734_Dallas
restored_node_4734_Denver
restored_node_4734_Columbus
restored_node_4734_El_Paso
restored_node_4734_Kansas_City
restored_node_4734_Las_Vegas
restored_node_4734_Los_Angeles
restored_node_4734_Louisville
restored_node_4734_New_York
restored_dc_4734_Birmingham
restored_node_4734_Portland
restored_dc_4734_Salt_Lake_City
restored_node_4734_San_Antonio
restored_node_4734_San_Francisco
restored_node_4734_Seattle
restored_node_4734_Tallahassee
restored_node_4734_Tucson
restored_node_4734_Washington_DC
x_4734_0
x_4734_1
x_4734_2
x_4734_3
x_4734_4
x_4734_5
x_4734_6
x_4734_7
x_4734_8
x_4734_9
x_4734_10
x_4734_11
x_4734_12
x_4734_13
x_4734_14
x_4734_15
x_4734_16
x_4734_17
x_4734_18
x_4734_19
x_4734_20
x_4734_21
x_4734_22
x_4734_23
x_4734_24
x_4734_25
x_4734_26
x_4734_27
x_4734_28
x_4734_29
x_4734_30
x_4734_31
x_4734_32
x_4734_33
x_4734_34
x_4734_37
x_4734_38
x_4734_39
x_4734_40
x_4734_41
x_4734_42
restored_4734
relocation_4734
restored_node_4432_Billings
restored_dc_4432_Bismarck
restored_node_4432_Ithaca
restored_node_4432_Charleston
restored_node_4432_Charlotte
restored_node_4432_Dallas
restored_node_4432_Denver
restored_node_4432_Columbus
restored_node_4432_El_Paso
restored_node_4432_Kansas_City
restored_node_4432_Las_Vegas
restored_node_4432_Los_Angeles
restored_node_4432_Louisville
restored_node_4432_New_Orleans
restored_node_4432_New_York
restored_dc_4432_Birmingham
restored_node_4432_Portland
restored_dc_4432_Salt_Lake_City
restored_node_4432_San_Antonio
restored_node_4432_San_Francisco
restored_node_4432_Seattle
restored_node_4432_Tucson
restored_node_4432_Washington_DC
x_4432_0
x_4432_1
x_4432_2
x_4432_3
x_4432_4
x_4432_5
x_4432_6
x_4432_7
x_4432_8
x_4432_9
x_4432_10
x_4432_11
x_4432_12
x_4432_13
x_4432_14
x_4432_15
x_4432_16
x_4432_17
x_4432_18
x_4432_19
x_4432_20
x_4432_21
x_4432_22
x_4432_23
x_4432_24
x_4432_25
x_4432_26
x_4432_27
x_4432_28
x_4432_29
x_4432_30
x_4432_31
x_4432_32
x_4432_33
x_4432_34
x_4432_37
x_4432_38
x_4432_39
x_4432_40
x_4432_41
x_4432_42
restored_4432
relocation_4432
restored_node_4621_Billings
restored_dc_4621_Bismarck
restored_node_4621_Ithaca
restored_node_4621_Charleston
restored_node_4621_Charlotte
restored_node_4621_Dallas
restored_node_4621_Denver
restored_node_4621_Columbus
restored_node_4621_El_Paso
restored_node_4621_Kansas_City
restored_node_4621_Las_Vegas
restored_node_4621_Los_Angeles
restored_node_4621_Louisville
restored_node_4621_New_York
restored_dc_4621_Birmingham
restored_node_4621_Portland
restored_dc_4621_Salt_Lake_City
restored_node_4621_San_Antonio
restored_node_4621_San_Francisco
restored_node_4621_Seattle
restored_node_4621_Tallahassee
restored_node_4621_Tucson
restored_node_4621_Washington_DC
x_4621_0
x_4621_1
x_4621_2
x_4621_3
x_4621_4
x_4621_5
x_4621_6
x_4621_7
x_4621_8
x_4621_9
x_4621_10
x_4621_11
x_4621_12
x_4621_13
x_4621_14
x_4621_15
x_4621_16
x_4621_17
x_4621_18
x_4621_19
x_4621_20
x_4621_21
x_4621_22
x_4621_23
x_4621_24
x_4621_25
x_4621_26
x_4621_27
x_4621_28
x_4621_29
x_4621_30
x_4621_31
x_4621_32
x_4621_33
x_4621_34
x_4621_37
x_4621_38
x_4621_39
x_4621_40
x_4621_41
x_4621_42
restored_4621
relocation_4621
restored_node_4710_Billings
restored_dc_4710_Bismarck
restored_node_4710_Ithaca
restored_node_4710_Charleston
restored_node_4710_Charlotte
restored_node_4710_Dallas
restored_node_4710_Denver
restored_node_4710_Columbus
restored_node_4710_El_Paso
restored_node_4710_Kansas_City
restored_node_4710_Las_Vegas
restored_node_4710_Los_Angeles
restored_node_4710_Louisville
restored_node_4710_New_York
restored_dc_4710_Birmingham
restored_node_4710_Portland
restored_dc_4710_Salt_Lake_City
restored_node_4710_San_Antonio
restored_node_4710_San_Francisco
restored_node_4710_Seattle
restored_node_4710_Tallahassee
restored_node_4710_Tucson
restored_node_4710_Washington_DC
x_4710_0
x_4710_1
x_4710_2
x_4710_3
x_4710_4
x_4710_5
x_4710_6
x_4710_7
x_4710_8
x_4710_9
x_4710_10
x_4710_11
x_4710_12
x_4710_13
x_4710_14
x_4710_15
x_4710_16
x_4710_17
x_4710_18
x_4710_19
x_4710_20
x_4710_21
x_4710_22
x_4710_23
x_4710_24
x_4710_25
x_4710_26
x_4710_27
x_4710_28
x_4710_29
x_4710_30
x_4710_31
x_4710_32
x_4710_33
x_4710_34
x_4710_37
x_4710_38
x_4710_39
x_4710_40
x_4710_41
x_4710_42
restored_4710
relocation_4710
restored_node_4865_Billings
restored_dc_4865_Bismarck
restored_node_4865_Ithaca
restored_node_4865_Charleston
restored_node_4865_Charlotte
restored_node_4865_Dallas
restored_node_4865_Denver
restored_node_4865_Columbus
restored_node_4865_El_Paso
restored_node_4865_Kansas_City
restored_node_4865_Las_Vegas
restored_node_4865_Los_Angeles
restored_node_4865_Louisville
restored_node_4865_New_Orleans
restored_node_4865_New_York
restored_dc_4865_Birmingham
restored_node_4865_Portland
restored_dc_4865_Salt_Lake_City
restored_node_4865_San_Antonio
restored_node_4865_San_Francisco
restored_node_4865_Seattle
restored_node_4865_Tucson
restored_node_4865_Washington_DC
x_4865_0
x_4865_1
x_4865_2
x_4865_3
x_4865_4
x_4865_5
x_4865_6
x_4865_7
x_4865_8
x_4865_9
x_4865_10
x_4865_11
x_4865_12
x_4865_13
x_4865_14
x_4865_15
x_4865_16
x_4865_17
x_4865_18
x_4865_19
x_4865_20
x_4865_21
x_4865_22
x_4865_23
x_4865_24
x_4865_25
x_4865_26
x_4865_27
x_4865_28
x_4865_29
x_4865_30
x_4865_31
x_4865_32
x_4865_33
x_4865_34
x_4865_37
x_4865_38
x_4865_39
x_4865_40
x_4865_41
x_4865_42
restored_4865
relocation_4865
restored_node_4647_Billings
restored_dc_4647_Bismarck
restored_node_4647_Ithaca
restored_node_4647_Charleston
restored_node_4647_Charlotte
restored_node_4647_Dallas
restored_node_4647_Denver
restored_node_4647_Columbus
restored_node_4647_El_Paso
restored_node_4647_Kansas_City
restored_node_4647_Las_Vegas
restored_node_4647_Los_Angeles
restored_node_4647_Louisville
restored_node_4647_New_Orleans
restored_node_4647_New_York
restored_dc_4647_Birmingham
restored_node_4647_Portland
restored_dc_4647_Salt_Lake_City
restored_node_4647_San_Antonio
restored_node_4647_San_Francisco
restored_node_4647_Seattle
restored_node_4647_Tucson
restored_node_4647_Washington_DC
x_4647_0
x_4647_1
x_4647_2
x_4647_3
x_4647_4
x_4647_5
x_4647_6
x_4647_7
x_4647_8
x_4647_9
x_4647_10
x_4647_11
x_4647_12
x_4647_13
x_4647_14
x_4647_15
x_4647_16
x_4647_17
x_4647_18
x_4647_19
x_4647_20
x_4647_21
x_4647_22
x_4647_23
x_4647_24
x_4647_25
x_4647_26
x_4647_27
x_4647_28
x_4647_29
x_4647_30
x_4647_31
x_4647_32
x_4647_33
x_4647_34
x_4647_37
x_4647_38
x_4647_39
x_4647_40
x_4647_41
x_4647_42
restored_4647
relocation_4647
restored_node_3381_Billings
restored_dc_3381_Bismarck
restored_node_3381_Ithaca
restored_node_3381_Charleston
restored_node_3381_Charlotte
restored_node_3381_Dallas
restored_node_3381_Denver
restored_node_3381_Columbus
restored_node_3381_El_Paso
restored_node_3381_Kansas_City
restored_node_3381_Las_Vegas
restored_node_3381_Los_Angeles
restored_node_3381_Louisville
restored_node_3381_New_Orleans
restored_node_3381_New_York
restored_dc_3381_Birmingham
restored_node_3381_Portland
restored_dc_3381_Salt_Lake_City
restored_node_3381_San_Antonio
restored_node_3381_San_Francisco
restored_node_3381_Seattle
restored_node_3381_Tucson
restored_node_3381_Washington_DC
x_3381_0
x_3381_1
x_3381_2
x_3381_3
x_3381_4
x_3381_5
x_3381_6
x_3381_7
x_3381_8
x_3381_9
x_3381_10
x_3381_11
x_3381_12
x_3381_13
x_3381_14
x_3381_15
x_3381_16
x_3381_17
x_3381_18
x_3381_19
x_3381_20
x_3381_21
x_3381_22
x_3381_23
x_3381_24
x_3381_25
x_3381_26
x_3381_27
x_3381_28
x_3381_29
x_3381_30
x_3381_31
x_3381_32
x_3381_33
x_3381_34
x_3381_37
x_3381_38
x_3381_39
x_3381_40
x_3381_41
x_3381_42
restored_3381
relocation_3381
restored_node_3209_Billings
restored_dc_3209_Bismarck
restored_node_3209_Ithaca
restored_node_3209_Charleston
restored_node_3209_Charlotte
restored_node_3209_Dallas
restored_node_3209_Denver
restored_node_3209_Columbus
restored_node_3209_El_Paso
restored_node_3209_Kansas_City
restored_node_3209_Las_Vegas
restored_node_3209_Los_Angeles
restored_node_3209_Louisville
restored_node_3209_New_Orleans
restored_node_3209_New_York
restored_dc_3209_Birmingham
restored_node_3209_Portland
restored_dc_3209_Salt_Lake_City
restored_node_3209_San_Antonio
restored_node_3209_San_Francisco
restored_node_3209_Seattle
restored_node_3209_Tucson
restored_node_3209_Washington_DC
x_3209_0
x_3209_1
x_3209_2
x_3209_3
x_3209_4
x_3209_5
x_3209_6
x_3209_7
x_3209_8
x_3209_9
x_3209_10
x_3209_11
x_3209_12
x_3209_13
x_3209_14
x_3209_15
x_3209_16
x_3209_17
x_3209_18
x_3209_19
x_3209_20
x_3209_21
x_3209_22
x_3209_23
x_3209_24
x_3209_25
x_3209_26
x_3209_27
x_3209_28
x_3209_29
x_3209_30
x_3209_31
x_3209_32
x_3209_33
x_3209_34
x_3209_37
x_3209_38
x_3209_39
x_3209_40
x_3209_41
x_3209_42
restored_3209
relocation_3209
restored_node_4453_Billings
restored_dc_4453_Bismarck
restored_node_4453_Ithaca
restored_node_4453_Charleston
restored_node_4453_Charlotte
restored_node_4453_Dallas
restored_node_4453_Denver
restored_node_4453_Columbus
restored_node_4453_El_Paso
restored_node_4453_Kansas_City
restored_node_4453_Las_Vegas
restored_node_4453_Los_Angeles
restored_node_4453_Louisville
restored_node_4453_New_Orleans
restored_node_4453_New_York
restored_dc_4453_Birmingham
restored_node_4453_Portland
restored_dc_4453_Salt_Lake_City
restored_node_4453_San_Antonio
restored_node_4453_San_Francisco
restored_node_4453_Seattle
restored_node_4453_Tucson
restored_node_4453_Washington_DC
x_4453_0
x_4453_1
x_4453_2
x_4453_3
x_4453_4
x_4453_5
x_4453_6
x_4453_7
x_4453_8
x_4453_9
x_4453_10
x_4453_11
x_4453_12
x_4453_13
x_4453_14
x_4453_15
x_4453_16
x_4453_17
x_4453_18
x_4453_19
x_4453_20
x_4453_21
x_4453_22
x_4453_23
x_4453_24
x_4453_25
x_4453_26
x_4453_27
x_4453_28
x_4453_29
x_4453_30
x_4453_31
x_4453_32
x_4453_33
x_4453_34
x_4453_37
x_4453_38
x_4453_39
x_4453_40
x_4453_41
x_4453_42
restored_4453
relocation_4453
restored_node_2620_Billings
restored_dc_2620_Bismarck
restored_node_2620_Ithaca
restored_node_2620_Charleston
restored_node_2620_Charlotte
restored_node_2620_Dallas
restored_node_2620_Denver
restored_node_2620_Columbus
restored_node_2620_El_Paso
restored_node_2620_Kansas_City
restored_node_2620_Las_Vegas
restored_node_2620_Los_Angeles
restored_node_2620_Louisville
restored_node_2620_New_Orleans
restored_node_2620_New_York
restored_dc_2620_Birmingham
restored_node_2620_Portland
restored_dc_2620_Salt_Lake_City
restored_node_2620_San_Francisco
restored_node_2620_Seattle
restored_node_2620_Tallahassee
restored_node_2620_Tucson
restored_node_2620_Washington_DC
x_2620_0
x_2620_1
x_2620_2
x_2620_3
x_2620_4
x_2620_5
x_2620_6
x_2620_7
x_2620_8
x_2620_9
x_2620_10
x_2620_11
x_2620_12
x_2620_13
x_2620_14
x_2620_15
x_2620_16
x_2620_17
x_2620_18
x_2620_19
x_2620_20
x_2620_21
x_2620_22
x_2620_23
x_2620_24
x_2620_25
x_2620_26
x_2620_27
x_2620_28
x_2620_29
x_2620_30
x_2620_31
x_2620_32
x_2620_33
x_2620_34
x_2620_37
x_2620_38
x_2620_39
x_2620_40
x_2620_41
x_2620_42
restored_2620
relocation_2620
restored_node_4130_Billings
restored_dc_4130_Bismarck
restored_node_4130_Ithaca
restored_node_4130_Charleston
restored_node_4130_Charlotte
restored_node_4130_Dallas
restored_node_4130_Denver
restored_node_4130_Columbus
restored_node_4130_El_Paso
restored_node_4130_Kansas_City
restored_node_4130_Las_Vegas
restored_node_4130_Los_Angeles
restored_node_4130_Louisville
restored_node_4130_New_Orleans
restored_node_4130_New_York
restored_dc_4130_Birmingham
restored_node_4130_Portland
restored_dc_4130_Salt_Lake_City
restored_node_4130_San_Antonio
restored_node_4130_San_Francisco
restored_node_4130_Seattle
restored_node_4130_Tucson
restored_node_4130_Washington_DC
x_4130_0
x_4130_1
x_4130_2
x_4130_3
x_4130_4
x_4130_5
x_4130_6
x_4130_7
x_4130_8
x_4130_9
x_4130_10
x_4130_11
x_4130_12
x_4130_13
x_4130_14
x_4130_15
x_4130_16
x_4130_17
x_4130_18
x_4130_19
x_4130_20
x_4130_21
x_4130_22
x_4130_23
x_4130_24
x_4130_25
x_4130_26
x_4130_27
x_4130_28
x_4130_29
x_4130_30
x_4130_31
x_4130_32
x_4130_33
x_4130_34
x_4130_37
x_4130_38
x_4130_39
x_4130_40
x_4130_41
x_4130_42
restored_4130
relocation_4130
restored_node_4354_Billings
restored_dc_4354_Bismarck
restored_node_4354_Ithaca
restored_node_4354_Charleston
restored_node_4354_Charlotte
restored_node_4354_Dallas
restored_node_4354_Denver
restored_node_4354_Columbus
restored_node_4354_El_Paso
restored_node_4354_Kansas_City
restored_node_4354_Las_Vegas
restored_node_4354_Los_Angeles
restored_node_4354_Louisville
restored_node_4354_New_Orleans
restored_node_4354_New_York
restored_dc_4354_Birmingham
restored_node_4354_Portland
restored_dc_4354_Salt_Lake_City
restored_node_4354_San_Francisco
restored_node_4354_Seattle
restored_node_4354_Tallahassee
restored_node_4354_Tucson
restored_node_4354_Washington_DC
x_4354_0
x_4354_1
x_4354_2
x_4354_3
x_4354_4
x_4354_5
x_4354_6
x_4354_7
x_4354_8
x_4354_9
x_4354_10
x_4354_11
x_4354_12
x_4354_13
x_4354_14
x_4354_15
x_4354_16
x_4354_17
x_4354_18
x_4354_19
x_4354_20
x_4354_21
x_4354_22
x_4354_23
x_4354_24
x_4354_25
x_4354_26
x_4354_27
x_4354_28
x_4354_29
x_4354_30
x_4354_31
x_4354_32
x_4354_33
x_4354_34
x_4354_37
x_4354_38
x_4354_39
x_4354_40
x_4354_41
x_4354_42
restored_4354
relocation_4354
restored_node_4433_Billings
restored_dc_4433_Bismarck
restored_node_4433_Ithaca
restored_node_4433_Charleston
restored_node_4433_Charlotte
restored_node_4433_Dallas
restored_node_4433_Denver
restored_node_4433_Columbus
restored_node_4433_El_Paso
restored_node_4433_Kansas_City
restored_node_4433_Las_Vegas
restored_node_4433_Los_Angeles
restored_node_4433_Louisville
restored_node_4433_New_Orleans
restored_node_4433_New_York
restored_dc_4433_Birmingham
restored_node_4433_Portland
restored_dc_4433_Salt_Lake_City
restored_node_4433_San_Francisco
restored_node_4433_Seattle
restored_node_4433_Tallahassee
restored_node_4433_Tucson
restored_node_4433_Washington_DC
x_4433_0
x_4433_1
x_4433_2
x_4433_3
x_4433_4
x_4433_5
x_4433_6
x_4433_7
x_4433_8
x_4433_9
x_4433_10
x_4433_11
x_4433_12
x_4433_13
x_4433_14
x_4433_15
x_4433_16
x_4433_17
x_4433_18
x_4433_19
x_4433_20
x_4433_21
x_4433_22
x_4433_23
x_4433_24
x_4433_25
x_4433_26
x_4433_27
x_4433_28
x_4433_29
x_4433_30
x_4433_31
x_4433_32
x_4433_33
x_4433_34
x_4433_37
x_4433_38
x_4433_39
x_4433_40
x_4433_41
x_4433_42
restored_4433
relocation_4433
restored_node_4518_Billings
restored_dc_4518_Bismarck
restored_node_4518_Ithaca
restored_node_4518_Charleston
restored_node_4518_Charlotte
restored_node_4518_Dallas
restored_node_4518_Denver
restored_node_4518_Columbus
restored_node_4518_El_Paso
restored_node_4518_Kansas_City
restored_node_4518_Las_Vegas
restored_node_4518_Los_Angeles
restored_node_4518_Louisville
restored_node_4518_New_Orleans
restored_node_4518_New_York
restored_dc_4518_Birmingham
restored_node_4518_Portland
restored_dc_4518_Salt_Lake_City
restored_node_4518_San_Antonio
restored_node_4518_San_Francisco
restored_node_4518_Seattle
restored_node_4518_Tucson
restored_node_4518_Washington_DC
x_4518_0
x_4518_1
x_4518_2
x_4518_3
x_4518_4
x_4518_5
x_4518_6
x_4518_7
x_4518_8
x_4518_9
x_4518_10
x_4518_11
x_4518_12
x_4518_13
x_4518_14
x_4518_15
x_4518_16
x_4518_17
x_4518_18
x_4518_19
x_4518_20
x_4518_21
x_4518_22
x_4518_23
x_4518_24
x_4518_25
x_4518_26
x_4518_27
x_4518_28
x_4518_29
x_4518_30
x_4518_31
x_4518_32
x_4518_33
x_4518_34
x_4518_37
x_4518_38
x_4518_39
x_4518_40
x_4518_41
x_4518_42
restored_4518
relocation_4518
restored_node_4644_Billings
restored_dc_4644_Bismarck
restored_node_4644_Ithaca
restored_node_4644_Charleston
restored_node_4644_Charlotte
restored_node_4644_Dallas
restored_node_4644_Denver
restored_node_4644_Columbus
restored_node_4644_El_Paso
restored_node_4644_Kansas_City
restored_node_4644_Las_Vegas
restored_node_4644_Los_Angeles
restored_node_4644_Louisville
restored_node_4644_New_Orleans
restored_node_4644_New_York
restored_dc_4644_Birmingham
restored_node_4644_Portland
restored_dc_4644_Salt_Lake_City
restored_node_4644_San_Francisco
restored_node_4644_Seattle
restored_node_4644_Tallahassee
restored_node_4644_Tucson
restored_node_4644_Washington_DC
x_4644_0
x_4644_1
x_4644_2
x_4644_3
x_4644_4
x_4644_5
x_4644_6
x_4644_7
x_4644_8
x_4644_9
x_4644_10
x_4644_11
x_4644_12
x_4644_13
x_4644_14
x_4644_15
x_4644_16
x_4644_17
x_4644_18
x_4644_19
x_4644_20
x_4644_21
x_4644_22
x_4644_23
x_4644_24
x_4644_25
x_4644_26
x_4644_27
x_4644_28
x_4644_29
x_4644_30
x_4644_31
x_4644_32
x_4644_33
x_4644_34
x_4644_37
x_4644_38
x_4644_39
x_4644_40
x_4644_41
x_4644_42
restored_4644
relocation_4644
restored_node_3840_Billings
restored_dc_3840_Bismarck
restored_node_3840_Ithaca
restored_node_3840_Charleston
restored_node_3840_Charlotte
restored_node_3840_Dallas
restored_node_3840_Denver
restored_node_3840_Columbus
restored_node_3840_El_Paso
restored_node_3840_Kansas_City
restored_node_3840_Las_Vegas
restored_node_3840_Los_Angeles
restored_node_3840_Louisville
restored_node_3840_New_York
restored_dc_3840_Birmingham
restored_node_3840_Portland
restored_dc_3840_Salt_Lake_City
restored_node_3840_San_Antonio
restored_node_3840_San_Francisco
restored_node_3840_Seattle
restored_node_3840_Tallahassee
restored_node_3840_Tucson
restored_node_3840_Washington_DC
x_3840_0
x_3840_1
x_3840_2
x_3840_3
x_3840_4
x_3840_5
x_3840_6
x_3840_7
x_3840_8
x_3840_9
x_3840_10
x_3840_11
x_3840_12
x_3840_13
x_3840_14
x_3840_15
x_3840_16
x_3840_17
x_3840_18
x_3840_19
x_3840_20
x_3840_21
x_3840_22
x_3840_23
x_3840_24
x_3840_25
x_3840_26
x_3840_27
x_3840_28
x_3840_29
x_3840_30
x_3840_31
x_3840_32
x_3840_33
x_3840_34
x_3840_37
x_3840_38
x_3840_39
x_3840_40
x_3840_41
x_3840_42
restored_3840
relocation_3840
restored_node_2413_Billings
restored_dc_2413_Bismarck
restored_node_2413_Ithaca
restored_node_2413_Charleston
restored_node_2413_Charlotte
restored_node_2413_Dallas
restored_node_2413_Denver
restored_node_2413_Columbus
restored_node_2413_El_Paso
restored_node_2413_Kansas_City
restored_node_2413_Las_Vegas
restored_node_2413_Los_Angeles
restored_node_2413_Louisville
restored_node_2413_New_Orleans
restored_node_2413_New_York
restored_dc_2413_Birmingham
restored_node_2413_Portland
restored_dc_2413_Salt_Lake_City
restored_node_2413_San_Antonio
restored_node_2413_San_Francisco
restored_node_2413_Seattle
restored_node_2413_Tucson
restored_node_2413_Washington_DC
x_2413_0
x_2413_1
x_2413_2
x_2413_3
x_2413_4
x_2413_5
x_2413_6
x_2413_7
x_2413_8
x_2413_9
x_2413_10
x_2413_11
x_2413_12
x_2413_13
x_2413_14
x_2413_15
x_2413_16
x_2413_17
x_2413_18
x_2413_19
x_2413_20
x_2413_21
x_2413_22
x_2413_23
x_2413_24
x_2413_25
x_2413_26
x_2413_27
x_2413_28
x_2413_29
x_2413_30
x_2413_31
x_2413_32
x_2413_33
x_2413_34
x_2413_37
x_2413_38
x_2413_39
x_2413_40
x_2413_41
x_2413_42
restored_2413
relocation_2413
restored_node_3664_Billings
restored_dc_3664_Bismarck
restored_node_3664_Ithaca
restored_node_3664_Charleston
restored_node_3664_Charlotte
restored_node_3664_Dallas
restored_node_3664_Denver
restored_node_3664_Columbus
restored_node_3664_El_Paso
restored_node_3664_Kansas_City
restored_node_3664_Las_Vegas
restored_node_3664_Los_Angeles
restored_node_3664_Louisville
restored_node_3664_New_Orleans
restored_node_3664_New_York
restored_dc_3664_Birmingham
restored_node_3664_Portland
restored_dc_3664_Salt_Lake_City
restored_node_3664_San_Francisco
restored_node_3664_Seattle
restored_node_3664_Tallahassee
restored_node_3664_Tucson
restored_node_3664_Washington_DC
x_3664_0
x_3664_1
x_3664_2
x_3664_3
x_3664_4
x_3664_5
x_3664_6
x_3664_7
x_3664_8
x_3664_9
x_3664_10
x_3664_11
x_3664_12
x_3664_13
x_3664_14
x_3664_15
x_3664_16
x_3664_17
x_3664_18
x_3664_19
x_3664_20
x_3664_21
x_3664_22
x_3664_23
x_3664_24
x_3664_25
x_3664_26
x_3664_27
x_3664_28
x_3664_29
x_3664_30
x_3664_31
x_3664_32
x_3664_33
x_3664_34
x_3664_37
x_3664_38
x_3664_39
x_3664_40
x_3664_41
x_3664_42
restored_3664
relocation_3664
restored_node_4774_Billings
restored_dc_4774_Bismarck
restored_node_4774_Ithaca
restored_node_4774_Charleston
restored_node_4774_Charlotte
restored_node_4774_Dallas
restored_node_4774_Denver
restored_node_4774_Columbus
restored_node_4774_El_Paso
restored_node_4774_Kansas_City
restored_node_4774_Las_Vegas
restored_node_4774_Los_Angeles
restored_node_4774_Louisville
restored_node_4774_New_Orleans
restored_node_4774_New_York
restored_dc_4774_Birmingham
restored_node_4774_Portland
restored_dc_4774_Salt_Lake_City
restored_node_4774_San_Francisco
restored_node_4774_Seattle
restored_node_4774_Tallahassee
restored_node_4774_Tucson
restored_node_4774_Washington_DC
x_4774_0
x_4774_1
x_4774_2
x_4774_3
x_4774_4
x_4774_5
x_4774_6
x_4774_7
x_4774_8
x_4774_9
x_4774_10
x_4774_11
x_4774_12
x_4774_13
x_4774_14
x_4774_15
x_4774_16
x_4774_17
x_4774_18
x_4774_19
x_4774_20
x_4774_21
x_4774_22
x_4774_23
x_4774_24
x_4774_25
x_4774_26
x_4774_27
x_4774_28
x_4774_29
x_4774_30
x_4774_31
x_4774_32
x_4774_33
x_4774_34
x_4774_37
x_4774_38
x_4774_39
x_4774_40
x_4774_41
x_4774_42
restored_4774
relocation_4774
restored_node_3759_Billings
restored_dc_3759_Bismarck
restored_node_3759_Ithaca
restored_node_3759_Charleston
restored_node_3759_Charlotte
restored_node_3759_Dallas
restored_node_3759_Denver
restored_node_3759_Columbus
restored_node_3759_El_Paso
restored_node_3759_Kansas_City
restored_node_3759_Las_Vegas
restored_node_3759_Los_Angeles
restored_node_3759_Louisville
restored_node_3759_New_York
restored_dc_3759_Birmingham
restored_node_3759_Portland
restored_dc_3759_Salt_Lake_City
restored_node_3759_San_Antonio
restored_node_3759_San_Francisco
restored_node_3759_Seattle
restored_node_3759_Tallahassee
restored_node_3759_Tucson
restored_node_3759_Washington_DC
x_3759_0
x_3759_1
x_3759_2
x_3759_3
x_3759_4
x_3759_5
x_3759_6
x_3759_7
x_3759_8
x_3759_9
x_3759_10
x_3759_11
x_3759_12
x_3759_13
x_3759_14
x_3759_15
x_3759_16
x_3759_17
x_3759_18
x_3759_19
x_3759_20
x_3759_21
x_3759_22
x_3759_23
x_3759_24
x_3759_25
x_3759_26
x_3759_27
x_3759_28
x_3759_29
x_3759_30
x_3759_31
x_3759_32
x_3759_33
x_3759_34
x_3759_37
x_3759_38
x_3759_39
x_3759_40
x_3759_41
x_3759_42
restored_3759
relocation_3759
restored_node_3968_Billings
restored_dc_3968_Bismarck
restored_node_3968_Ithaca
restored_node_3968_Charleston
restored_node_3968_Charlotte
restored_node_3968_Dallas
restored_node_3968_Denver
restored_node_3968_Columbus
restored_node_3968_El_Paso
restored_node_3968_Kansas_City
restored_node_3968_Las_Vegas
restored_node_3968_Los_Angeles
restored_node_3968_Louisville
restored_node_3968_New_York
restored_dc_3968_Birmingham
restored_node_3968_Portland
restored_dc_3968_Salt_Lake_City
restored_node_3968_San_Antonio
restored_node_3968_San_Francisco
restored_node_3968_Seattle
restored_node_3968_Tallahassee
restored_node_3968_Tucson
restored_node_3968_Washington_DC
x_3968_0
x_3968_1
x_3968_2
x_3968_3
x_3968_4
x_3968_5
x_3968_6
x_3968_7
x_3968_8
x_3968_9
x_3968_10
x_3968_11
x_3968_12
x_3968_13
x_3968_14
x_3968_15
x_3968_16
x_3968_17
x_3968_18
x_3968_19
x_3968_20
x_3968_21
x_3968_22
x_3968_23
x_3968_24
x_3968_25
x_3968_26
x_3968_27
x_3968_28
x_3968_29
x_3968_30
x_3968_31
x_3968_32
x_3968_33
x_3968_34
x_3968_37
x_3968_38
x_3968_39
x_3968_40
x_3968_41
x_3968_42
restored_3968
relocation_3968
restored_node_4270_Billings
restored_dc_4270_Bismarck
restored_node_4270_Ithaca
restored_node_4270_Charleston
restored_node_4270_Charlotte
restored_node_4270_Dallas
restored_node_4270_Denver
restored_node_4270_Columbus
restored_node_4270_El_Paso
restored_node_4270_Kansas_City
restored_node_4270_Las_Vegas
restored_node_4270_Los_Angeles
restored_node_4270_Louisville
restored_node_4270_New_Orleans
restored_node_4270_New_York
restored_dc_4270_Birmingham
restored_node_4270_Portland
restored_dc_4270_Salt_Lake_City
restored_node_4270_San_Francisco
restored_node_4270_Seattle
restored_node_4270_Tallahassee
restored_node_4270_Tucson
restored_node_4270_Washington_DC
x_4270_0
x_4270_1
x_4270_2
x_4270_3
x_4270_4
x_4270_5
x_4270_6
x_4270_7
x_4270_8
x_4270_9
x_4270_10
x_4270_11
x_4270_12
x_4270_13
x_4270_14
x_4270_15
x_4270_16
x_4270_17
x_4270_18
x_4270_19
x_4270_20
x_4270_21
x_4270_22
x_4270_23
x_4270_24
x_4270_25
x_4270_26
x_4270_27
x_4270_28
x_4270_29
x_4270_30
x_4270_31
x_4270_32
x_4270_33
x_4270_34
x_4270_37
x_4270_38
x_4270_39
x_4270_40
x_4270_41
x_4270_42
restored_4270
relocation_4270
restored_node_4129_Billings
restored_dc_4129_Bismarck
restored_node_4129_Ithaca
restored_node_4129_Charleston
restored_node_4129_Charlotte
restored_node_4129_Dallas
restored_node_4129_Denver
restored_node_4129_Columbus
restored_node_4129_El_Paso
restored_node_4129_Kansas_City
restored_node_4129_Las_Vegas
restored_node_4129_Los_Angeles
restored_node_4129_Louisville
restored_node_4129_New_York
restored_dc_4129_Birmingham
restored_node_4129_Portland
restored_dc_4129_Salt_Lake_City
restored_node_4129_San_Antonio
restored_node_4129_San_Francisco
restored_node_4129_Seattle
restored_node_4129_Tallahassee
restored_node_4129_Tucson
restored_node_4129_Washington_DC
x_4129_0
x_4129_1
x_4129_2
x_4129_3
x_4129_4
x_4129_5
x_4129_6
x_4129_7
x_4129_8
x_4129_9
x_4129_10
x_4129_11
x_4129_12
x_4129_13
x_4129_14
x_4129_15
x_4129_16
x_4129_17
x_4129_18
x_4129_19
x_4129_20
x_4129_21
x_4129_22
x_4129_23
x_4129_24
x_4129_25
x_4129_26
x_4129_27
x_4129_28
x_4129_29
x_4129_30
x_4129_31
x_4129_32
x_4129_33
x_4129_34
x_4129_37
x_4129_38
x_4129_39
x_4129_40
x_4129_41
x_4129_42
restored_4129
relocation_4129
restored_node_4671_Billings
restored_dc_4671_Bismarck
restored_node_4671_Ithaca
restored_node_4671_Charleston
restored_node_4671_Charlotte
restored_node_4671_Dallas
restored_node_4671_Denver
restored_node_4671_Columbus
restored_node_4671_El_Paso
restored_node_4671_Kansas_City
restored_node_4671_Las_Vegas
restored_node_4671_Los_Angeles
restored_node_4671_Louisville
restored_node_4671_New_Orleans
restored_node_4671_New_York
restored_dc_4671_Birmingham
restored_node_4671_Portland
restored_dc_4671_Salt_Lake_City
restored_node_4671_San_Francisco
restored_node_4671_Seattle
restored_node_4671_Tallahassee
restored_node_4671_Tucson
restored_node_4671_Washington_DC
x_4671_0
x_4671_1
x_4671_2
x_4671_3
x_4671_4
x_4671_5
x_4671_6
x_4671_7
x_4671_8
x_4671_9
x_4671_10
x_4671_11
x_4671_12
x_4671_13
x_4671_14
x_4671_15
x_4671_16
x_4671_17
x_4671_18
x_4671_19
x_4671_20
x_4671_21
x_4671_22
x_4671_23
x_4671_24
x_4671_25
x_4671_26
x_4671_27
x_4671_28
x_4671_29
x_4671_30
x_4671_31
x_4671_32
x_4671_33
x_4671_34
x_4671_37
x_4671_38
x_4671_39
x_4671_40
x_4671_41
x_4671_42
restored_4671
relocation_4671
restored_node_4152_Billings
restored_dc_4152_Bismarck
restored_node_4152_Ithaca
restored_node_4152_Charleston
restored_node_4152_Charlotte
restored_node_4152_Dallas
restored_node_4152_Denver
restored_node_4152_Columbus
restored_node_4152_El_Paso
restored_node_4152_Kansas_City
restored_node_4152_Las_Vegas
restored_node_4152_Los_Angeles
restored_node_4152_Louisville
restored_node_4152_New_York
restored_dc_4152_Birmingham
restored_node_4152_Portland
restored_dc_4152_Salt_Lake_City
restored_node_4152_San_Antonio
restored_node_4152_San_Francisco
restored_node_4152_Seattle
restored_node_4152_Tallahassee
restored_node_4152_Tucson
restored_node_4152_Washington_DC
x_4152_0
x_4152_1
x_4152_2
x_4152_3
x_4152_4
x_4152_5
x_4152_6
x_4152_7
x_4152_8
x_4152_9
x_4152_10
x_4152_11
x_4152_12
x_4152_13
x_4152_14
x_4152_15
x_4152_16
x_4152_17
x_4152_18
x_4152_19
x_4152_20
x_4152_21
x_4152_22
x_4152_23
x_4152_24
x_4152_25
x_4152_26
x_4152_27
x_4152_28
x_4152_29
x_4152_30
x_4152_31
x_4152_32
x_4152_33
x_4152_34
x_4152_37
x_4152_38
x_4152_39
x_4152_40
x_4152_41
x_4152_42
restored_4152
relocation_4152
restored_node_4379_Billings
restored_dc_4379_Bismarck
restored_node_4379_Ithaca
restored_node_4379_Charleston
restored_node_4379_Charlotte
restored_node_4379_Dallas
restored_node_4379_Denver
restored_node_4379_Columbus
restored_node_4379_El_Paso
restored_node_4379_Kansas_City
restored_node_4379_Las_Vegas
restored_node_4379_Los_Angeles
restored_node_4379_Louisville
restored_node_4379_New_York
restored_dc_4379_Birmingham
restored_node_4379_Portland
restored_dc_4379_Salt_Lake_City
restored_node_4379_San_Antonio
restored_node_4379_San_Francisco
restored_node_4379_Seattle
restored_node_4379_Tallahassee
restored_node_4379_Tucson
restored_node_4379_Washington_DC
x_4379_0
x_4379_1
x_4379_2
x_4379_3
x_4379_4
x_4379_5
x_4379_6
x_4379_7
x_4379_8
x_4379_9
x_4379_10
x_4379_11
x_4379_12
x_4379_13
x_4379_14
x_4379_15
x_4379_16
x_4379_17
x_4379_18
x_4379_19
x_4379_20
x_4379_21
x_4379_22
x_4379_23
x_4379_24
x_4379_25
x_4379_26
x_4379_27
x_4379_28
x_4379_29
x_4379_30
x_4379_31
x_4379_32
x_4379_33
x_4379_34
x_4379_37
x_4379_38
x_4379_39
x_4379_40
x_4379_41
x_4379_42
restored_4379
relocation_4379
restored_node_4812_Billings
restored_dc_4812_Bismarck
restored_node_4812_Ithaca
restored_node_4812_Charleston
restored_node_4812_Charlotte
restored_node_4812_Dallas
restored_node_4812_Denver
restored_node_4812_Columbus
restored_node_4812_El_Paso
restored_node_4812_Kansas_City
restored_node_4812_Las_Vegas
restored_node_4812_Los_Angeles
restored_node_4812_Louisville
restored_node_4812_New_York
restored_dc_4812_Birmingham
restored_node_4812_Portland
restored_dc_4812_Salt_Lake_City
restored_node_4812_San_Antonio
restored_node_4812_San_Francisco
restored_node_4812_Seattle
restored_node_4812_Tallahassee
restored_node_4812_Tucson
restored_node_4812_Washington_DC
x_4812_0
x_4812_1
x_4812_2
x_4812_3
x_4812_4
x_4812_5
x_4812_6
x_4812_7
x_4812_8
x_4812_9
x_4812_10
x_4812_11
x_4812_12
x_4812_13
x_4812_14
x_4812_15
x_4812_16
x_4812_17
x_4812_18
x_4812_19
x_4812_20
x_4812_21
x_4812_22
x_4812_23
x_4812_24
x_4812_25
x_4812_26
x_4812_27
x_4812_28
x_4812_29
x_4812_30
x_4812_31
x_4812_32
x_4812_33
x_4812_34
x_4812_37
x_4812_38
x_4812_39
x_4812_40
x_4812_41
x_4812_42
restored_4812
relocation_4812
restored_node_4513_Billings
restored_dc_4513_Bismarck
restored_node_4513_Ithaca
restored_node_4513_Charleston
restored_node_4513_Charlotte
restored_node_4513_Dallas
restored_node_4513_Denver
restored_node_4513_Columbus
restored_node_4513_El_Paso
restored_node_4513_Kansas_City
restored_node_4513_Las_Vegas
restored_node_4513_Los_Angeles
restored_node_4513_Louisville
restored_node_4513_New_Orleans
restored_node_4513_New_York
restored_dc_4513_Birmingham
restored_node_4513_Portland
restored_dc_4513_Salt_Lake_City
restored_node_4513_San_Antonio
restored_node_4513_San_Francisco
restored_node_4513_Seattle
restored_node_4513_Tucson
restored_node_4513_Washington_DC
x_4513_0
x_4513_1
x_4513_2
x_4513_3
x_4513_4
x_4513_5
x_4513_6
x_4513_7
x_4513_8
x_4513_9
x_4513_10
x_4513_11
x_4513_12
x_4513_13
x_4513_14
x_4513_15
x_4513_16
x_4513_17
x_4513_18
x_4513_19
x_4513_20
x_4513_21
x_4513_22
x_4513_23
x_4513_24
x_4513_25
x_4513_26
x_4513_27
x_4513_28
x_4513_29
x_4513_30
x_4513_31
x_4513_32
x_4513_33
x_4513_34
x_4513_37
x_4513_38
x_4513_39
x_4513_40
x_4513_41
x_4513_42
restored_4513
relocation_4513
restored_node_4584_Billings
restored_dc_4584_Bismarck
restored_node_4584_Ithaca
restored_node_4584_Charleston
restored_node_4584_Charlotte
restored_node_4584_Dallas
restored_node_4584_Denver
restored_node_4584_Columbus
restored_node_4584_El_Paso
restored_node_4584_Kansas_City
restored_node_4584_Las_Vegas
restored_node_4584_Los_Angeles
restored_node_4584_Louisville
restored_node_4584_New_Orleans
restored_node_4584_New_York
restored_dc_4584_Birmingham
restored_node_4584_Portland
restored_dc_4584_Salt_Lake_City
restored_node_4584_San_Francisco
restored_node_4584_Seattle
restored_node_4584_Tallahassee
restored_node_4584_Tucson
restored_node_4584_Washington_DC
x_4584_0
x_4584_1
x_4584_2
x_4584_3
x_4584_4
x_4584_5
x_4584_6
x_4584_7
x_4584_8
x_4584_9
x_4584_10
x_4584_11
x_4584_12
x_4584_13
x_4584_14
x_4584_15
x_4584_16
x_4584_17
x_4584_18
x_4584_19
x_4584_20
x_4584_21
x_4584_22
x_4584_23
x_4584_24
x_4584_25
x_4584_26
x_4584_27
x_4584_28
x_4584_29
x_4584_30
x_4584_31
x_4584_32
x_4584_33
x_4584_34
x_4584_37
x_4584_38
x_4584_39
x_4584_40
x_4584_41
x_4584_42
restored_4584
relocation_4584
restored_node_4585_Billings
restored_dc_4585_Bismarck
restored_node_4585_Ithaca
restored_node_4585_Charleston
restored_node_4585_Charlotte
restored_node_4585_Dallas
restored_node_4585_Denver
restored_node_4585_Columbus
restored_node_4585_El_Paso
restored_node_4585_Kansas_City
restored_node_4585_Las_Vegas
restored_node_4585_Los_Angeles
restored_node_4585_Louisville
restored_node_4585_New_York
restored_dc_4585_Birmingham
restored_node_4585_Portland
restored_dc_4585_Salt_Lake_City
restored_node_4585_San_Antonio
restored_node_4585_San_Francisco
restored_node_4585_Seattle
restored_node_4585_Tallahassee
restored_node_4585_Tucson
restored_node_4585_Washington_DC
x_4585_0
x_4585_1
x_4585_2
x_4585_3
x_4585_4
x_4585_5
x_4585_6
x_4585_7
x_4585_8
x_4585_9
x_4585_10
x_4585_11
x_4585_12
x_4585_13
x_4585_14
x_4585_15
x_4585_16
x_4585_17
x_4585_18
x_4585_19
x_4585_20
x_4585_21
x_4585_22
x_4585_23
x_4585_24
x_4585_25
x_4585_26
x_4585_27
x_4585_28
x_4585_29
x_4585_30
x_4585_31
x_4585_32
x_4585_33
x_4585_34
x_4585_37
x_4585_38
x_4585_39
x_4585_40
x_4585_41
x_4585_42
restored_4585
relocation_4585
restored_node_4212_Billings
restored_dc_4212_Bismarck
restored_node_4212_Ithaca
restored_node_4212_Charleston
restored_node_4212_Charlotte
restored_node_4212_Dallas
restored_node_4212_Denver
restored_node_4212_Columbus
restored_node_4212_El_Paso
restored_node_4212_Kansas_City
restored_node_4212_Las_Vegas
restored_node_4212_Los_Angeles
restored_node_4212_Louisville
restored_node_4212_New_York
restored_dc_4212_Birmingham
restored_node_4212_Portland
restored_dc_4212_Salt_Lake_City
restored_node_4212_San_Antonio
restored_node_4212_San_Francisco
restored_node_4212_Seattle
restored_node_4212_Tallahassee
restored_node_4212_Tucson
restored_node_4212_Washington_DC
x_4212_0
x_4212_1
x_4212_2
x_4212_3
x_4212_4
x_4212_5
x_4212_6
x_4212_7
x_4212_8
x_4212_9
x_4212_10
x_4212_11
x_4212_12
x_4212_13
x_4212_14
x_4212_15
x_4212_16
x_4212_17
x_4212_18
x_4212_19
x_4212_20
x_4212_21
x_4212_22
x_4212_23
x_4212_24
x_4212_25
x_4212_26
x_4212_27
x_4212_28
x_4212_29
x_4212_30
x_4212_31
x_4212_32
x_4212_33
x_4212_34
x_4212_37
x_4212_38
x_4212_39
x_4212_40
x_4212_41
x_4212_42
restored_4212
relocation_4212
restored_node_4272_Billings
restored_dc_4272_Bismarck
restored_node_4272_Ithaca
restored_node_4272_Charleston
restored_node_4272_Charlotte
restored_node_4272_Dallas
restored_node_4272_Denver
restored_node_4272_Columbus
restored_node_4272_El_Paso
restored_node_4272_Kansas_City
restored_node_4272_Las_Vegas
restored_node_4272_Los_Angeles
restored_node_4272_Louisville
restored_node_4272_New_York
restored_dc_4272_Birmingham
restored_node_4272_Portland
restored_dc_4272_Salt_Lake_City
restored_node_4272_San_Antonio
restored_node_4272_San_Francisco
restored_node_4272_Seattle
restored_node_4272_Tallahassee
restored_node_4272_Tucson
restored_node_4272_Washington_DC
x_4272_0
x_4272_1
x_4272_2
x_4272_3
x_4272_4
x_4272_5
x_4272_6
x_4272_7
x_4272_8
x_4272_9
x_4272_10
x_4272_11
x_4272_12
x_4272_13
x_4272_14
x_4272_15
x_4272_16
x_4272_17
x_4272_18
x_4272_19
x_4272_20
x_4272_21
x_4272_22
x_4272_23
x_4272_24
x_4272_25
x_4272_26
x_4272_27
x_4272_28
x_4272_29
x_4272_30
x_4272_31
x_4272_32
x_4272_33
x_4272_34
x_4272_37
x_4272_38
x_4272_39
x_4272_40
x_4272_41
x_4272_42
restored_4272
relocation_4272
restored_node_4144_Billings
restored_dc_4144_Bismarck
restored_node_4144_Ithaca
restored_node_4144_Charleston
restored_node_4144_Charlotte
restored_node_4144_Dallas
restored_node_4144_Denver
restored_node_4144_Columbus
restored_node_4144_El_Paso
restored_node_4144_Kansas_City
restored_node_4144_Las_Vegas
restored_node_4144_Los_Angeles
restored_node_4144_Louisville
restored_node_4144_New_Orleans
restored_node_4144_New_York
restored_dc_4144_Birmingham
restored_node_4144_Portland
restored_dc_4144_Salt_Lake_City
restored_node_4144_San_Antonio
restored_node_4144_San_Francisco
restored_node_4144_Seattle
restored_node_4144_Tucson
restored_node_4144_Washington_DC
x_4144_0
x_4144_1
x_4144_2
x_4144_3
x_4144_4
x_4144_5
x_4144_6
x_4144_7
x_4144_8
x_4144_9
x_4144_10
x_4144_11
x_4144_12
x_4144_13
x_4144_14
x_4144_15
x_4144_16
x_4144_17
x_4144_18
x_4144_19
x_4144_20
x_4144_21
x_4144_22
x_4144_23
x_4144_24
x_4144_25
x_4144_26
x_4144_27
x_4144_28
x_4144_29
x_4144_30
x_4144_31
x_4144_32
x_4144_33
x_4144_34
x_4144_37
x_4144_38
x_4144_39
x_4144_40
x_4144_41
x_4144_42
restored_4144
relocation_4144
restored_node_3572_Billings
restored_dc_3572_Bismarck
restored_node_3572_Ithaca
restored_node_3572_Charleston
restored_node_3572_Charlotte
restored_node_3572_Dallas
restored_node_3572_Denver
restored_node_3572_Columbus
restored_node_3572_El_Paso
restored_node_3572_Kansas_City
restored_node_3572_Las_Vegas
restored_node_3572_Los_Angeles
restored_node_3572_Louisville
restored_node_3572_New_York
restored_dc_3572_Birmingham
restored_node_3572_Portland
restored_dc_3572_Salt_Lake_City
restored_node_3572_San_Antonio
restored_node_3572_San_Francisco
restored_node_3572_Seattle
restored_node_3572_Tallahassee
restored_node_3572_Tucson
restored_node_3572_Washington_DC
x_3572_0
x_3572_1
x_3572_2
x_3572_3
x_3572_4
x_3572_5
x_3572_6
x_3572_7
x_3572_8
x_3572_9
x_3572_10
x_3572_11
x_3572_12
x_3572_13
x_3572_14
x_3572_15
x_3572_16
x_3572_17
x_3572_18
x_3572_19
x_3572_20
x_3572_21
x_3572_22
x_3572_23
x_3572_24
x_3572_25
x_3572_26
x_3572_27
x_3572_28
x_3572_29
x_3572_30
x_3572_31
x_3572_32
x_3572_33
x_3572_34
x_3572_37
x_3572_38
x_3572_39
x_3572_40
x_3572_41
x_3572_42
restored_3572
relocation_3572
restored_node_4818_Billings
restored_dc_4818_Bismarck
restored_node_4818_Ithaca
restored_node_4818_Charleston
restored_node_4818_Charlotte
restored_node_4818_Dallas
restored_node_4818_Denver
restored_node_4818_Columbus
restored_node_4818_El_Paso
restored_node_4818_Kansas_City
restored_node_4818_Las_Vegas
restored_node_4818_Los_Angeles
restored_node_4818_Louisville
restored_node_4818_New_Orleans
restored_node_4818_New_York
restored_dc_4818_Birmingham
restored_node_4818_Portland
restored_dc_4818_Salt_Lake_City
restored_node_4818_San_Antonio
restored_node_4818_San_Francisco
restored_node_4818_Seattle
restored_node_4818_Tucson
restored_node_4818_Washington_DC
x_4818_0
x_4818_1
x_4818_2
x_4818_3
x_4818_4
x_4818_5
x_4818_6
x_4818_7
x_4818_8
x_4818_9
x_4818_10
x_4818_11
x_4818_12
x_4818_13
x_4818_14
x_4818_15
x_4818_16
x_4818_17
x_4818_18
x_4818_19
x_4818_20
x_4818_21
x_4818_22
x_4818_23
x_4818_24
x_4818_25
x_4818_26
x_4818_27
x_4818_28
x_4818_29
x_4818_30
x_4818_31
x_4818_32
x_4818_33
x_4818_34
x_4818_37
x_4818_38
x_4818_39
x_4818_40
x_4818_41
x_4818_42
restored_4818
relocation_4818
restored_node_4659_Billings
restored_dc_4659_Bismarck
restored_node_4659_Ithaca
restored_node_4659_Charleston
restored_node_4659_Charlotte
restored_node_4659_Dallas
restored_node_4659_Denver
restored_node_4659_Columbus
restored_node_4659_El_Paso
restored_node_4659_Kansas_City
restored_node_4659_Las_Vegas
restored_node_4659_Los_Angeles
restored_node_4659_Louisville
restored_node_4659_New_Orleans
restored_node_4659_New_York
restored_dc_4659_Birmingham
restored_node_4659_Portland
restored_dc_4659_Salt_Lake_City
restored_node_4659_San_Francisco
restored_node_4659_Seattle
restored_node_4659_Tallahassee
restored_node_4659_Tucson
restored_node_4659_Washington_DC
x_4659_0
x_4659_1
x_4659_2
x_4659_3
x_4659_4
x_4659_5
x_4659_6
x_4659_7
x_4659_8
x_4659_9
x_4659_10
x_4659_11
x_4659_12
x_4659_13
x_4659_14
x_4659_15
x_4659_16
x_4659_17
x_4659_18
x_4659_19
x_4659_20
x_4659_21
x_4659_22
x_4659_23
x_4659_24
x_4659_25
x_4659_26
x_4659_27
x_4659_28
x_4659_29
x_4659_30
x_4659_31
x_4659_32
x_4659_33
x_4659_34
x_4659_37
x_4659_38
x_4659_39
x_4659_40
x_4659_41
x_4659_42
restored_4659
relocation_4659
restored_node_3253_Billings
restored_dc_3253_Bismarck
restored_node_3253_Ithaca
restored_node_3253_Charleston
restored_node_3253_Charlotte
restored_node_3253_Dallas
restored_node_3253_Denver
restored_node_3253_Columbus
restored_node_3253_El_Paso
restored_node_3253_Kansas_City
restored_node_3253_Las_Vegas
restored_node_3253_Los_Angeles
restored_node_3253_Louisville
restored_node_3253_New_York
restored_dc_3253_Birmingham
restored_node_3253_Portland
restored_dc_3253_Salt_Lake_City
restored_node_3253_San_Antonio
restored_node_3253_San_Francisco
restored_node_3253_Seattle
restored_node_3253_Tallahassee
restored_node_3253_Tucson
restored_node_3253_Washington_DC
x_3253_0
x_3253_1
x_3253_2
x_3253_3
x_3253_4
x_3253_5
x_3253_6
x_3253_7
x_3253_8
x_3253_9
x_3253_10
x_3253_11
x_3253_12
x_3253_13
x_3253_14
x_3253_15
x_3253_16
x_3253_17
x_3253_18
x_3253_19
x_3253_20
x_3253_21
x_3253_22
x_3253_23
x_3253_24
x_3253_25
x_3253_26
x_3253_27
x_3253_28
x_3253_29
x_3253_30
x_3253_31
x_3253_32
x_3253_33
x_3253_34
x_3253_37
x_3253_38
x_3253_39
x_3253_40
x_3253_41
x_3253_42
restored_3253
relocation_3253
restored_node_4352_Billings
restored_dc_4352_Bismarck
restored_node_4352_Ithaca
restored_node_4352_Charleston
restored_node_4352_Charlotte
restored_node_4352_Dallas
restored_node_4352_Denver
restored_node_4352_Columbus
restored_node_4352_El_Paso
restored_node_4352_Kansas_City
restored_node_4352_Las_Vegas
restored_node_4352_Los_Angeles
restored_node_4352_Louisville
restored_node_4352_New_York
restored_dc_4352_Birmingham
restored_node_4352_Portland
restored_dc_4352_Salt_Lake_City
restored_node_4352_San_Antonio
restored_node_4352_San_Francisco
restored_node_4352_Seattle
restored_node_4352_Tallahassee
restored_node_4352_Tucson
restored_node_4352_Washington_DC
x_4352_0
x_4352_1
x_4352_2
x_4352_3
x_4352_4
x_4352_5
x_4352_6
x_4352_7
x_4352_8
x_4352_9
x_4352_10
x_4352_11
x_4352_12
x_4352_13
x_4352_14
x_4352_15
x_4352_16
x_4352_17
x_4352_18
x_4352_19
x_4352_20
x_4352_21
x_4352_22
x_4352_23
x_4352_24
x_4352_25
x_4352_26
x_4352_27
x_4352_28
x_4352_29
x_4352_30
x_4352_31
x_4352_32
x_4352_33
x_4352_34
x_4352_37
x_4352_38
x_4352_39
x_4352_40
x_4352_41
x_4352_42
restored_4352
relocation_4352
restored_node_3350_Billings
restored_dc_3350_Bismarck
restored_node_3350_Ithaca
restored_node_3350_Charleston
restored_node_3350_Charlotte
restored_node_3350_Dallas
restored_node_3350_Denver
restored_node_3350_Columbus
restored_node_3350_El_Paso
restored_node_3350_Kansas_City
restored_node_3350_Las_Vegas
restored_node_3350_Los_Angeles
restored_node_3350_Louisville
restored_node_3350_New_Orleans
restored_node_3350_New_York
restored_dc_3350_Birmingham
restored_node_3350_Portland
restored_dc_3350_Salt_Lake_City
restored_node_3350_San_Antonio
restored_node_3350_San_Francisco
restored_node_3350_Seattle
restored_node_3350_Tucson
restored_node_3350_Washington_DC
x_3350_0
x_3350_1
x_3350_2
x_3350_3
x_3350_4
x_3350_5
x_3350_6
x_3350_7
x_3350_8
x_3350_9
x_3350_10
x_3350_11
x_3350_12
x_3350_13
x_3350_14
x_3350_15
x_3350_16
x_3350_17
x_3350_18
x_3350_19
x_3350_20
x_3350_21
x_3350_22
x_3350_23
x_3350_24
x_3350_25
x_3350_26
x_3350_27
x_3350_28
x_3350_29
x_3350_30
x_3350_31
x_3350_32
x_3350_33
x_3350_34
x_3350_37
x_3350_38
x_3350_39
x_3350_40
x_3350_41
x_3350_42
restored_3350
relocation_3350
restored_node_4741_Billings
restored_dc_4741_Bismarck
restored_node_4741_Ithaca
restored_node_4741_Charleston
restored_node_4741_Charlotte
restored_node_4741_Dallas
restored_node_4741_Denver
restored_node_4741_Columbus
restored_node_4741_El_Paso
restored_node_4741_Kansas_City
restored_node_4741_Las_Vegas
restored_node_4741_Los_Angeles
restored_node_4741_Louisville
restored_node_4741_New_York
restored_dc_4741_Birmingham
restored_node_4741_Portland
restored_dc_4741_Salt_Lake_City
restored_node_4741_San_Antonio
restored_node_4741_San_Francisco
restored_node_4741_Seattle
restored_node_4741_Tallahassee
restored_node_4741_Tucson
restored_node_4741_Washington_DC
x_4741_0
x_4741_1
x_4741_2
x_4741_3
x_4741_4
x_4741_5
x_4741_6
x_4741_7
x_4741_8
x_4741_9
x_4741_10
x_4741_11
x_4741_12
x_4741_13
x_4741_14
x_4741_15
x_4741_16
x_4741_17
x_4741_18
x_4741_19
x_4741_20
x_4741_21
x_4741_22
x_4741_23
x_4741_24
x_4741_25
x_4741_26
x_4741_27
x_4741_28
x_4741_29
x_4741_30
x_4741_31
x_4741_32
x_4741_33
x_4741_34
x_4741_37
x_4741_38
x_4741_39
x_4741_40
x_4741_41
x_4741_42
restored_4741
relocation_4741
restored_node_4455_Billings
restored_dc_4455_Bismarck
restored_node_4455_Ithaca
restored_node_4455_Charleston
restored_node_4455_Charlotte
restored_node_4455_Dallas
restored_node_4455_Denver
restored_node_4455_Columbus
restored_node_4455_El_Paso
restored_node_4455_Kansas_City
restored_node_4455_Las_Vegas
restored_node_4455_Los_Angeles
restored_node_4455_Louisville
restored_node_4455_New_Orleans
restored_node_4455_New_York
restored_dc_4455_Birmingham
restored_node_4455_Portland
restored_dc_4455_Salt_Lake_City
restored_node_4455_San_Antonio
restored_node_4455_San_Francisco
restored_node_4455_Seattle
restored_node_4455_Tucson
restored_node_4455_Washington_DC
x_4455_0
x_4455_1
x_4455_2
x_4455_3
x_4455_4
x_4455_5
x_4455_6
x_4455_7
x_4455_8
x_4455_9
x_4455_10
x_4455_11
x_4455_12
x_4455_13
x_4455_14
x_4455_15
x_4455_16
x_4455_17
x_4455_18
x_4455_19
x_4455_20
x_4455_21
x_4455_22
x_4455_23
x_4455_24
x_4455_25
x_4455_26
x_4455_27
x_4455_28
x_4455_29
x_4455_30
x_4455_31
x_4455_32
x_4455_33
x_4455_34
x_4455_37
x_4455_38
x_4455_39
x_4455_40
x_4455_41
x_4455_42
restored_4455
relocation_4455
restored_node_4328_Billings
restored_dc_4328_Bismarck
restored_node_4328_Ithaca
restored_node_4328_Charleston
restored_node_4328_Charlotte
restored_node_4328_Dallas
restored_node_4328_Denver
restored_node_4328_Columbus
restored_node_4328_El_Paso
restored_node_4328_Kansas_City
restored_node_4328_Las_Vegas
restored_node_4328_Los_Angeles
restored_node_4328_Louisville
restored_node_4328_New_York
restored_dc_4328_Birmingham
restored_node_4328_Portland
restored_dc_4328_Salt_Lake_City
restored_node_4328_San_Antonio
restored_node_4328_San_Francisco
restored_node_4328_Seattle
restored_node_4328_Tallahassee
restored_node_4328_Tucson
restored_node_4328_Washington_DC
x_4328_0
x_4328_1
x_4328_2
x_4328_3
x_4328_4
x_4328_5
x_4328_6
x_4328_7
x_4328_8
x_4328_9
x_4328_10
x_4328_11
x_4328_12
x_4328_13
x_4328_14
x_4328_15
x_4328_16
x_4328_17
x_4328_18
x_4328_19
x_4328_20
x_4328_21
x_4328_22
x_4328_23
x_4328_24
x_4328_25
x_4328_26
x_4328_27
x_4328_28
x_4328_29
x_4328_30
x_4328_31
x_4328_32
x_4328_33
x_4328_34
x_4328_37
x_4328_38
x_4328_39
x_4328_40
x_4328_41
x_4328_42
restored_4328
relocation_4328
General 
load_0
load_1
load_2
load_3
load_4
load_5
load_6
load_7
load_8
load_9
load_10
load_11
load_12
load_13
load_14
load_15
load_16
load_17
load_18
load_19
load_20
load_21
load_22
load_23
load_24
load_25
load_26
load_27
load_28
load_29
load_30
load_31
load_32
load_33
load_34
load_37
load_38
load_39
load_40
load_41
load_42
path_4688
path_4805
path_4824
path_4527
path_4123
path_3470
path_4000
path_4870
path_4867
path_4256
path_4789
path_4026
path_4639
path_4598
path_4772
path_4781
path_4624
path_4877
path_4255
path_4631
path_3740
path_4637
path_3691
path_4709
path_4758
path_4548
path_4423
path_4331
path_4744
path_4210
path_505
path_3161
path_4359
path_4488
path_4463
path_4651
path_4771
path_4847
path_4734
path_4432
path_4621
path_4710
path_4865
path_4647
path_3381
path_3209
path_4453
path_2620
path_4130
path_4354
path_4433
path_4518
path_4644
path_3840
path_2413
path_3664
path_4774
path_3759
path_3968
path_4270
path_4129
path_4671
path_4152
path_4379
path_4812
path_4513
path_4584
path_4585
path_4212
path_4272
path_4144
path_3572
path_4818
path_4659
path_3253
path_4352
path_3350
path_4741
path_4455
path_4328
restored 
restored_time 
unrestored_time 
unrestored 
relocations 
total_cost 
wls 
END 
